3
water
O   0.0000000000  0.0000000000  0.0000000000
H   0.7571600000  0.5862600000  0.0000000000
H  -0.7571600000  0.5862600000  0.0000000000



#STRUCTURE
[ROTATIONAL]
A_MHz = 821423.1473563844
B_MHz = 437347.5880063956
C_MHz = 285395.4434565092
kappa = -0.433043689927
rotor_type = asymmetric_top_quasi_prolate
representation = Ir
quasi_linear = 0
sigma = 2

[THERMO]
T_K = 298.150000
P_PA = 101325.000000
U_Jmol = 7436.870666014703
H_Jmol = 9915.827554686271
S_JmolK = 180.202816166753
G_Jmol = -43811.642085431195
