h2co opt                                                                
Freq      RHF                                                         6-31+G(d)           
Number of atoms                            I                4
Info1-9                                    I   N=           9
          15          13           0           0           0         101
           6           1           2
Full Title                                 C   N=           1
h2co opt    
Route                                      C   N=           7
#p hf/6-31+g* sym=com geom=(allcheck,readallgic) freq=intmod
es iop(7/33=4)          
Point Group                                C   N=           2
C02V                    
Point Group NOp                            I                4
Point Group Abelian NOp                    I                4
Point Group NClass                         I                4
Point Group NIrrep                         I                4
Point Group NGen                           I                2
Point Group NOp symm assign                I                2
Point Group Irrep Names                    H   N=           4
A1      A2      B1      B2      
Point Group Class Names                    H   N=           4
E       C2      Sgm     Sgm'    
Point Group Generators                     I   N=           2
           2           3
Point Group Class of Operators             I   N=           4
           1           2           3           4
Point Group Rotations                      R   N=          48
  1.00000000E+00  4.83260249E-17  4.43734259E-31  4.83260249E-17  1.00000000E+00
  3.45126646E-31  3.94430453E-31  3.94430453E-31  1.00000000E+00  0.00000000E+00
  0.00000000E+00  0.00000000E+00 -1.00000000E+00 -1.70790705E-16  1.20424087E-46
  7.41386550E-17 -1.00000000E+00  9.86076132E-32 -4.93038066E-32 -4.93038066E-32
  1.00000000E+00  0.00000000E+00  0.00000000E+00  0.00000000E+00 -1.00000000E+00
  6.70496994E-32 -4.93038066E-32  5.94006542E-32  1.00000000E+00  3.94430453E-31
  1.31371731E-46  3.94430453E-31  1.00000000E+00  0.00000000E+00  0.00000000E+00
  0.00000000E+00  1.00000000E+00 -1.22464680E-16  4.43734259E-31 -1.22464680E-16
 -1.00000000E+00 -4.93038066E-32  3.94430453E-31 -4.93038066E-32  1.00000000E+00
  0.00000000E+00  0.00000000E+00  0.00000000E+00
Point Group Cell Trans                     I   N=          12
           0           0           0           0           0           0
           0           0           0           0           0           0
Point Group Char Table                     R   N=          16
  1.00000000E+00  1.00000000E+00  1.00000000E+00  1.00000000E+00  1.00000000E+00
  1.00000000E+00 -1.00000000E+00 -1.00000000E+00  1.00000000E+00 -1.00000000E+00
 -1.00000000E+00  1.00000000E+00  1.00000000E+00 -1.00000000E+00  1.00000000E+00
 -1.00000000E+00
Point Group Atom Permutations              I   N=          16
           1           2           3           4           1           2
           4           3           1           2           3           4
           1           2           4           3
Charge                                     I                0
Multiplicity                               I                1
Number of electrons                        I               16
Number of alpha electrons                  I                8
Number of beta electrons                   I                8
Number of basis functions                  I               42
Number of independent functions            I               42
Number of point charges in /Mol/           I                0
Number of translation vectors              I                0
Atomic numbers                             I   N=           4
           8           6           1           1
Nuclear charges                            R   N=           4
  8.00000000E+00  6.00000000E+00  1.00000000E+00  1.00000000E+00
Current cartesian coordinates              R   N=          12
 -2.98561536E-16 -4.59772332E-16  1.11965256E+00  2.99006434E-16  4.60457456E-16
 -1.12132099E+00  5.89341420E-18  1.75071380E+00 -2.20916081E+00  8.73270796E-16
 -1.75071380E+00 -2.20916081E+00
Number of symbols in /Mol/                 I                0
Int Atom Types                             I   N=           4
           0           0           0           0
Force Field                                I                0
Atom Types                                 C   N=           4
                                                
MM charges                                 R   N=           4
  0.00000000E+00  0.00000000E+00  0.00000000E+00  0.00000000E+00
Integer atomic weights                     I   N=           4
          16          12           1           1
Real atomic weights                        R   N=           4
  1.59949146E+01  1.20000000E+01  1.00782504E+00  1.00782504E+00
Atom fragment info                         I   N=           4
           0           0           0           0
Atom residue num                           I   N=           4
           0           0           0           0
Nuclear spins                              I   N=           4
           0           0           1           1
Nuclear ZEff                               R   N=           4
 -5.60000000E+00 -3.60000000E+00 -1.00000000E+00 -1.00000000E+00
Nuclear ZNuc                               R   N=           4
  8.00000000E+00  6.00000000E+00  1.00000000E+00  1.00000000E+00
Nuclear QMom                               R   N=           4
  0.00000000E+00  0.00000000E+00  0.00000000E+00  0.00000000E+00
Nuclear GFac                               R   N=           4
  0.00000000E+00  0.00000000E+00  2.79284600E+00  2.79284600E+00
MicOpt                                     I   N=           4
          -1          -1          -1          -1
Number of residues                         I                0
Number of secondary structures             I                0
Redundant internal dimensions              I   N=           4
           7           0           0           0
CrData-IFlags                              I   N=          16
          -2          75           1           7         173           1
           1           0           0           1           0          40
          40     1083047     1110000           0
CrData-InfCrd                              I   N=         750
         100          -1           1           4           1           0
           1          -1          -1           1          62          -1
           5           1           1           0           1          -1
          -1           2           2           0           6           3
           1           0         111           0           3           3
         100          -1           9           4           1           0
           1          -1          -1           1          62          -1
          13           1           1           0           1          -1
          -1           2           2           0          14           3
           1           0         111          10          13           3
         100          -1          17           4           1           0
           1          -1          -1           1          62          -1
          21           1           1           0           1          -1
          -1           2           2           0          22           3
           1           0         111          20          23           3
         100          -1          25           4           1           0
           1          -1          -1           1          61          -1
          29           1           1           0           1          -1
          -1           3          61          -1          30           1
           1           0           1          -1          -1           3
          52          -1          31           2           1           0
           1          -1          -1           4          52          -1
          33           2           1           0           1          -1
          -1           5          58          -1          35           0
           1           1           1          -1          -1           1
          52          -1          35           2           2           0
           1          -1          -1           6          73          -1
          37           1           2           0           1          -1
          -1           7           3           0          38           4
           2           0         221          30          33           8
         100          -1          42           4           2           0
           1          -1          -1           1          61          -1
          46           1           2           0           1          -1
          -1           3          52          -1          47           2
           2           0           1          -1          -1           4
          52          -1          49           2           2           0
           1          -1          -1           5          52          -1
          51           2           2           0           1          -1
          -1           6          73          -1          53           1
           2           0           1          -1          -1           7
           3           0          54           4           2           0
         221          42          45           8         100          -1
          58           4           2           0           1          -1
          -1           1          52          -1          62           2
           2           0           1          -1          -1           4
          52          -1          64           2           2           0
           1          -1          -1           5          73          -1
          66           1           2           0           1          -1
          -1           6           3           0          67           4
           2           0         221          54          57           7
         100          -1          71           4           2           0
           1          -1          -1           1         100          -1
          75           4           2           0           1          -1
          -1           1         100          -1          79           4
           2           0           1          -1          -1           1
          62          -1          83           1           2           0
           1          -1          -1           2          52          -1
          84           2           2           0           1          -1
          -1           3          53          -1          86           2
           2           0           1          -1          -1           4
          52          -1          88           2           2           0
           1          -1          -1           5          52          -1
          90           2           2           0           1          -1
          -1           2          52          -1          92           2
           2           0           1          -1          -1           2
          51          -1          94           2           2           0
           1          -1          -1           3          52          -1
          96           2           2           0           1          -1
          -1           2          63          -1          98           1
           2           0           1          -1          -1           2
          51          -1          99           2           2           0
           1          -1          -1           3          52          -1
         101           2           2           0           1          -1
          -1           2          63          -1         103           1
           2           0           1          -1          -1           2
          51          -1         104           2           2           0
           1          -1          -1           3          52          -1
         106           2           2           0           1          -1
          -1           4          62          -1         108           1
           2           0           1          -1          -1           5
          53          -1         109           2           2           0
           1          -1          -1           6         110          -1
         111           3           2           0           1          -1
          -1           1         110          -1         114           3
           2           0           1          -1          -1           1
         110          -1         117           3           2           0
           1          -1          -1           1         110          -1
         120           3           2           0           1          -1
          -1           1         110          -1         123           3
           2           0           1          -1          -1           1
         110          -1         126           3           2           0
           1          -1          -1           1          52          -1
         129           2           2           0           1          -1
          -1           2          52          -1         131           2
           2           0           1          -1          -1           2
          52          -1         133           2           2           0
           1          -1          -1           2          52          -1
         135           2           2           0           1          -1
          -1           2          52          -1         137           2
           2           0           1          -1          -1           2
          52          -1         139           2           2           0
           1          -1          -1           2          51          -1
         141           2           2           0           1          -1
          -1           3          51          -1         143           2
           2           0           1          -1          -1           3
          51          -1         145           2           2           0
           1          -1          -1           3         110          -1
         147           3           2           0           1          -1
          -1           1          52          -1         150           2
           2           0           1          -1          -1           4
         110          -1         152           3           2           0
           1          -1          -1           1          52          -1
         155           2           2           0           1          -1
          -1           4          50          -1         157           2
           2           0           1          -1          -1           5
         110          -1         159           3           2           0
           1          -1          -1           1          52          -1
         162           2           2           0           1          -1
          -1           4          50          -1         164           2
           2           0           1          -1          -1           6
          73          -1         166           1           2           0
           1          -1          -1           7          80          -1
         167           2           2           0           1          -1
          -1           8           4           0         169           5
           2           0         421          66          69           9
CrData-IVars                               I   N=         173
           1           2           1           2           1           2
           1           2           2           3           2           3
           4           5           2           3           2           4
           2           4           7           8           2           4
           1           2           2           3           2           5
          11          12          10          13          14          15
          16          17           1           2           3           1
           2           2           4           8          11          20
          19          21          15          22          23          24
           1           2           4           2           3           2
           4          12          20          26          27          28
          29           3           2           4           3           4
           3           4           1           2           3           4
           2           3           3           4          31           5
          34          33          35          15          36          10
          33           4          32          38          39           1
           4          10          41          42           4          31
          33          44          45          43          46          47
          40          48          -1           3           4          -2
           3           4          -3           3           4          -1
           2           3          -2           2           3          -3
           2           3          50          54          50          55
          51          53          51          55          52          53
          52          54          61          59          57          60
          58          56          -1           2           1          65
          62          -2           2           1          67          63
          66          68          -3           2           1          70
          64          71          69          49          73          72
          74           1           2           3           4
CrData-RVars                               R   N=           1
 -1.00000000E+00
CrData-NCrdSt                              I   N=           1
           7
CrData-ICrdSt                              I   N=           7
           3           6           9          18          25          30
          75
CrData-LabNumbers                          I   N=           3
     8000000     1000003          80
CrData-Labels                              H   N=          10
R1\R(1,2)\R2\R(2,3)\R3\R(2,4)\A1\A(1,2,3)\A2\A(1,2,4)\A3\A(3,2,4)\D1\D(1
,2,3,4)\
Redundant internal coordinates             R   N=           7
  2.24097355E+00  2.06116333E+00  2.06116333E+00  2.12678054E+00  2.12678054E+00
  2.02962422E+00  3.14159265E+00
ZRed-IntVec                                I   N=           7
           0           0           0           0           0           0
           0
ZRed-FPVec                                 R   N=           7
  0.00000000E+00  0.00000000E+00  0.00000000E+00  0.00000000E+00  0.00000000E+00
  0.00000000E+00  0.00000000E+00
ZRed-Constraint1                           R   N=           7
  2.24097355E+00  2.06116333E+00  2.06116333E+00  2.12678054E+00  2.12678054E+00
  2.02962422E+00  3.14159265E+00
ZRed-Constraint2                           R   N=           7
  2.24097355E+00  2.06116333E+00  2.06116333E+00  2.12678054E+00  2.12678054E+00
  2.02962422E+00  3.14159265E+00
SymInf integers                            I   N=          26
           2           4           1           1           1          -1
          -1           1          -1           1           1           1
          -1           1           0           0           0           0
           0           0           0           0           0           0
           0           0
RotTr to input orientation                 R   N=          12
  1.00000000E+00  3.69360938E-16  2.66655521E-16 -3.57279432E-16  1.00000000E+00
  4.10638398E-16 -2.66655521E-16 -4.10638398E-16  1.00000000E+00  1.47391827E-17
 -4.43932876E-17  1.36813813E-01
Number of contracted shells                I               14
Number of primitive shells                 I               32
Pure/Cartesian d shells                    I                1
Pure/Cartesian f shells                    I                0
Highest angular momentum                   I                2
Largest degree of contraction              I                6
Shell types                                I   N=          14
           0          -1          -1          -1           2           0
          -1          -1          -1           2           0           0
           0           0
Number of primitives per shell             I   N=          14
           6           3           1           1           1           6
           3           1           1           1           3           1
           3           1
Shell to atom map                          I   N=          14
           1           1           1           1           1           2
           2           2           2           2           3           3
           4           4
Primitive exponents                        R   N=          32
  5.48467166E+03  8.25234946E+02  1.88046958E+02  5.29645000E+01  1.68975704E+01
  5.79963534E+00  1.55396162E+01  3.59993359E+00  1.01376175E+00  2.70005823E-01
  8.45000000E-02  8.00000000E-01  3.04752488E+03  4.57369518E+02  1.03948685E+02
  2.92101553E+01  9.28666296E+00  3.16392696E+00  7.86827235E+00  1.88128854E+00
  5.44249258E-01  1.68714478E-01  4.38000000E-02  8.00000000E-01  1.87311370E+01
  2.82539436E+00  6.40121692E-01  1.61277759E-01  1.87311370E+01  2.82539436E+00
  6.40121692E-01  1.61277759E-01
Contraction coefficients                   R   N=          32
  1.83107443E-03  1.39501722E-02  6.84450781E-02  2.32714336E-01  4.70192898E-01
  3.58520853E-01 -1.10777550E-01 -1.48026263E-01  1.13076702E+00  1.00000000E+00
  1.00000000E+00  1.00000000E+00  1.83473713E-03  1.40373228E-02  6.88426223E-02
  2.32184443E-01  4.67941348E-01  3.62311985E-01 -1.19332420E-01 -1.60854152E-01
  1.14345644E+00  1.00000000E+00  1.00000000E+00  1.00000000E+00  3.34946043E-02
  2.34726953E-01  8.13757326E-01  1.00000000E+00  3.34946043E-02  2.34726953E-01
  8.13757326E-01  1.00000000E+00
P(S=P) Contraction coefficients            R   N=          32
  0.00000000E+00  0.00000000E+00  0.00000000E+00  0.00000000E+00  0.00000000E+00
  0.00000000E+00  7.08742682E-02  3.39752839E-01  7.27158577E-01  1.00000000E+00
  1.00000000E+00  0.00000000E+00  0.00000000E+00  0.00000000E+00  0.00000000E+00
  0.00000000E+00  0.00000000E+00  0.00000000E+00  6.89990666E-02  3.16423961E-01
  7.44308291E-01  1.00000000E+00  1.00000000E+00  0.00000000E+00  0.00000000E+00
  0.00000000E+00  0.00000000E+00  0.00000000E+00  0.00000000E+00  0.00000000E+00
  0.00000000E+00  0.00000000E+00
Coordinates of each shell                  R   N=          42
  2.34613315E-31  2.20812532E-31  1.11965256E+00  2.34613315E-31  2.20812532E-31
  1.11965256E+00  2.34613315E-31  2.20812532E-31  1.11965256E+00  2.34613315E-31
  2.20812532E-31  1.11965256E+00  2.34613315E-31  2.20812532E-31  1.11965256E+00
 -2.34962922E-31 -2.21141573E-31 -1.12132099E+00 -2.34962922E-31 -2.21141573E-31
 -1.12132099E+00 -2.34962922E-31 -2.21141573E-31 -1.12132099E+00 -2.34962922E-31
 -2.21141573E-31 -1.12132099E+00 -2.34962922E-31 -2.21141573E-31 -1.12132099E+00
  4.23025194E-17  1.75071380E+00 -2.20916081E+00  4.23025194E-17  1.75071380E+00
 -2.20916081E+00 -3.41308163E-16 -1.75071380E+00 -2.20916081E+00 -3.41308163E-16
 -1.75071380E+00 -2.20916081E+00
Constraint Structure                       R   N=          12
  1.00030008E-16  1.68102810E-16  1.11965256E+00 -1.97023138E-16 -2.86823610E-16
 -1.12132099E+00  7.58371933E-16  1.75071380E+00 -2.20916081E+00 -6.57203959E-33
 -1.75071380E+00 -2.20916081E+00
Constraint Force Constants                 R   N=          12
  0.00000000E+00  0.00000000E+00  0.00000000E+00  0.00000000E+00  0.00000000E+00
  0.00000000E+00  0.00000000E+00  0.00000000E+00  0.00000000E+00  0.00000000E+00
  0.00000000E+00  0.00000000E+00
Num ILSW                                   I              100
ILSW                                       I   N=         100
           0           1           0           0           2           0
           0           0           0           0           0          -1
           5           0           0           0           2          -1
           0           0           0           0           1           0
           1           0           0           0           0           0
           0           0      100000           0          -1           0
           0           0           0           0           0           0
           0           0           0           1           0           0
           0 -2000000000           1           0           0           0
           0           0        2004          68           0           0
           0           0           0           0           0           0
           0           0           0           4           0           1
           0           0           0           0           0           0
           0           0           0           0           0           0
           0           0           0           0           0           0
           0           0           0           0           0           0
           0           0           0           0
Num RLSW                                   I               68
RLSW                                       R   N=          68
  1.00000000E+00  1.00000000E+00  1.00000000E+00  1.00000000E+00  1.00000000E+00
  0.00000000E+00  0.00000000E+00  1.00000000E+00  0.00000000E+00  0.00000000E+00
  0.00000000E+00  0.00000000E+00  1.00000000E+00  0.00000000E+00  0.00000000E+00
  0.00000000E+00  0.00000000E+00  1.00000000E+00  0.00000000E+00  0.00000000E+00
  0.00000000E+00  0.00000000E+00  1.00000000E+00  0.00000000E+00  0.00000000E+00
  0.00000000E+00  0.00000000E+00  1.00000000E+00  0.00000000E+00  0.00000000E+00
  0.00000000E+00  0.00000000E+00  1.00000000E+00  0.00000000E+00  0.00000000E+00
  0.00000000E+00  0.00000000E+00  0.00000000E+00  1.00000000E+00  1.00000000E+00
  0.00000000E+00  1.00000000E+00  0.00000000E+00  0.00000000E+00  0.00000000E+00
  0.00000000E+00  0.00000000E+00  0.00000000E+00  0.00000000E+00  0.00000000E+00
  0.00000000E+00  0.00000000E+00  1.00000000E+00  1.00000000E+00  1.00000000E+00
  1.00000000E+00  1.00000000E+00  1.00000000E+00  0.00000000E+00  0.00000000E+00
  0.00000000E+00  0.00000000E+00  0.00000000E+00  0.00000000E+00  0.00000000E+00
  0.00000000E+00  2.00000000E-10  1.00000000E-02
MxBond                                     I                3
NBond                                      I   N=           4
           1           3           1           1
IBond                                      I   N=          12
           2           0           0           1           3           4
           2           0           0           2           0           0
RBond                                      R   N=          12
  2.00000000E+00  0.00000000E+00  0.00000000E+00  2.00000000E+00  1.00000000E+00
  1.00000000E+00  1.00000000E+00  0.00000000E+00  0.00000000E+00  1.00000000E+00
  0.00000000E+00  0.00000000E+00
Virial Ratio                               R      2.002337023985004E+00
SCF Energy                                 R     -1.138711568458100E+02
Total Energy                               R     -1.138711568458100E+02
RMS Force                                  R      8.244628362617672E-08
RMS Density                                R      4.124969204885115E-09
NImag                                      I                0
Zero-point Energy                          R      2.914815818985193E-02
Job Status                                 I                1
Nuclear derivative order                   I                2
Energy with zero-point                     R     -1.138420086876202E+02
Thermal Energy                             R     -1.138391550991209E+02
Thermal Enthalpy                           R     -1.138382109143072E+02
Thermal Free Energy                        R     -1.138629688127000E+02
External E-field                           R   N=         105
  0.00000000E+00  0.00000000E+00  0.00000000E+00  0.00000000E+00  0.00000000E+00
  0.00000000E+00  0.00000000E+00  0.00000000E+00  0.00000000E+00  0.00000000E+00
  0.00000000E+00  0.00000000E+00  0.00000000E+00  0.00000000E+00  0.00000000E+00
  0.00000000E+00  0.00000000E+00  0.00000000E+00  0.00000000E+00  0.00000000E+00
  0.00000000E+00  0.00000000E+00  0.00000000E+00  0.00000000E+00  0.00000000E+00
  0.00000000E+00  0.00000000E+00  0.00000000E+00  0.00000000E+00  0.00000000E+00
  0.00000000E+00  0.00000000E+00  0.00000000E+00  0.00000000E+00  0.00000000E+00
  0.00000000E+00  0.00000000E+00  0.00000000E+00  0.00000000E+00  0.00000000E+00
  0.00000000E+00  0.00000000E+00  0.00000000E+00  0.00000000E+00  0.00000000E+00
  0.00000000E+00  0.00000000E+00  0.00000000E+00  0.00000000E+00  0.00000000E+00
  0.00000000E+00  0.00000000E+00  0.00000000E+00  0.00000000E+00  0.00000000E+00
  0.00000000E+00  0.00000000E+00  0.00000000E+00  0.00000000E+00  0.00000000E+00
  0.00000000E+00  0.00000000E+00  0.00000000E+00  0.00000000E+00  0.00000000E+00
  0.00000000E+00  0.00000000E+00  0.00000000E+00  0.00000000E+00  0.00000000E+00
  0.00000000E+00  0.00000000E+00  0.00000000E+00  0.00000000E+00  0.00000000E+00
  0.00000000E+00  0.00000000E+00  0.00000000E+00  0.00000000E+00  0.00000000E+00
  0.00000000E+00  0.00000000E+00  0.00000000E+00  0.00000000E+00  0.00000000E+00
  0.00000000E+00  0.00000000E+00  0.00000000E+00  0.00000000E+00  0.00000000E+00
  0.00000000E+00  0.00000000E+00  0.00000000E+00  0.00000000E+00  0.00000000E+00
  0.00000000E+00  0.00000000E+00  0.00000000E+00  0.00000000E+00  0.00000000E+00
  0.00000000E+00  0.00000000E+00  0.00000000E+00  0.00000000E+00  0.00000000E+00
IOpCl                                      I                0
IROHF                                      I                0
Alpha Orbital Energies                     R   N=          42
 -2.05939017E+01 -1.13433731E+01 -1.42511520E+00 -8.74192911E-01 -7.04454137E-01
 -6.58828165E-01 -5.46895097E-01 -4.42427891E-01  7.58676273E-02  7.78005607E-02
  9.96713522E-02  1.03471517E-01  1.71709761E-01  2.84556776E-01  3.12595094E-01
  3.20181613E-01  3.29389902E-01  3.84104476E-01  4.00837037E-01  5.25573746E-01
  8.52571748E-01  9.48531831E-01  9.56344265E-01  1.16574203E+00  1.18085040E+00
  1.24731838E+00  1.45932474E+00  1.49451033E+00  1.49799222E+00  1.74253939E+00
  1.76479625E+00  1.80754416E+00  1.96767062E+00  2.20847961E+00  2.24275442E+00
  2.49723410E+00  2.73412367E+00  2.90967084E+00  3.04201343E+00  3.38698344E+00
  4.45068132E+00  4.62034273E+00
Alpha MO coefficients                      R   N=        1764
  9.94615890E-01  2.08583035E-02  0.00000000E+00  0.00000000E+00 -1.67882939E-03
  5.41722112E-03  0.00000000E+00  0.00000000E+00  4.89459684E-04 -1.66298102E-03
  0.00000000E+00  0.00000000E+00 -9.00398904E-05 -4.43866686E-03 -4.11152772E-03
 -3.81992694E-03  0.00000000E+00  0.00000000E+00  0.00000000E+00 -3.22472437E-06
  3.87227872E-04  0.00000000E+00  0.00000000E+00 -9.46896579E-05  3.84500742E-04
  0.00000000E+00  0.00000000E+00 -1.44945798E-04  5.76557844E-04  0.00000000E+00
  0.00000000E+00  3.33950435E-04 -4.38209042E-05 -8.79367442E-05 -7.41210736E-04
  0.00000000E+00  0.00000000E+00  0.00000000E+00 -3.68932058E-05 -8.53198029E-05
 -3.68932058E-05 -8.53198029E-05 -3.98491736E-04  4.90630608E-04  0.00000000E+00
  0.00000000E+00 -3.68848585E-04 -8.34494280E-04  0.00000000E+00  0.00000000E+00
  3.31928173E-04  6.52753362E-03  0.00000000E+00  0.00000000E+00 -2.82827758E-03
  2.90450357E-04  6.82182752E-05  2.50490745E-04  0.00000000E+00  0.00000000E+00
  0.00000000E+00  9.95791284E-01  2.77292367E-02  0.00000000E+00  0.00000000E+00
  8.89472512E-04 -1.29619818E-02  0.00000000E+00  0.00000000E+00 -1.01015833E-03
 -1.87919607E-03  0.00000000E+00  0.00000000E+00 -5.86597326E-04 -2.40551836E-03
 -1.77752036E-03 -1.15833828E-03  0.00000000E+00  0.00000000E+00  0.00000000E+00
  2.81414508E-05  1.26929058E-03  2.81414508E-05  1.26929058E-03 -1.96987354E-01
  4.38265750E-01  0.00000000E+00  0.00000000E+00 -1.45701567E-01  3.72949547E-01
  0.00000000E+00  0.00000000E+00 -4.29683024E-02 -2.19831284E-02  0.00000000E+00
  0.00000000E+00 -4.95412727E-06 -1.40192243E-03 -2.17986845E-03  1.85447566E-02
  0.00000000E+00  0.00000000E+00  0.00000000E+00 -1.14433218E-01  2.16502943E-01
  0.00000000E+00  0.00000000E+00  1.85141937E-01  8.18241763E-02  0.00000000E+00
  0.00000000E+00 -1.30149645E-02  1.46665800E-02  0.00000000E+00  0.00000000E+00
  9.48976733E-03 -1.78290673E-02 -1.58931379E-02  3.43762021E-02  0.00000000E+00
  0.00000000E+00  0.00000000E+00  2.81109015E-02 -7.41916469E-03  2.81109015E-02
 -7.41916469E-03  8.75747717E-02 -2.01824321E-01  0.00000000E+00  0.00000000E+00
 -1.45978166E-01 -2.72524233E-01  0.00000000E+00  0.00000000E+00 -5.90155258E-02
 -2.85680934E-02  0.00000000E+00  0.00000000E+00  9.63981665E-03 -9.56721939E-04
 -4.73883638E-03  6.39355142E-03  0.00000000E+00  0.00000000E+00  0.00000000E+00
 -1.61563972E-01  3.33817487E-01  0.00000000E+00  0.00000000E+00 -1.90098072E-01
  3.41718839E-01  0.00000000E+00  0.00000000E+00 -6.50900156E-02  8.27370858E-04
  0.00000000E+00  0.00000000E+00 -3.17933506E-03 -1.41124660E-02  2.80328947E-02
  1.24870676E-03  0.00000000E+00  0.00000000E+00  0.00000000E+00  1.78291556E-01
  6.95067718E-02  1.78291556E-01  6.95067718E-02  0.00000000E+00  0.00000000E+00
  0.00000000E+00  3.47033681E-01  0.00000000E+00  0.00000000E+00  0.00000000E+00
  1.94623493E-01  0.00000000E+00  0.00000000E+00  0.00000000E+00 -3.72827801E-03
  0.00000000E+00  0.00000000E+00  0.00000000E+00  0.00000000E+00  0.00000000E+00
  0.00000000E+00 -2.58199721E-02  0.00000000E+00  0.00000000E+00  0.00000000E+00
  4.13797152E-01  0.00000000E+00  0.00000000E+00  0.00000000E+00  1.55638151E-01
  0.00000000E+00  0.00000000E+00  0.00000000E+00  9.20665611E-03  0.00000000E+00
  0.00000000E+00  0.00000000E+00  0.00000000E+00  0.00000000E+00  0.00000000E+00
 -1.04570808E-02  1.81253797E-01  1.08493188E-01 -1.81253797E-01 -1.08493188E-01
 -6.97374054E-02  1.63206410E-01  0.00000000E+00  0.00000000E+00  5.13494478E-01
  3.22559611E-01  0.00000000E+00  0.00000000E+00  2.46737831E-01  5.95833137E-02
  0.00000000E+00  0.00000000E+00  1.34608674E-02  9.44059987E-03  1.18653986E-02
 -2.68953918E-02  0.00000000E+00  0.00000000E+00  0.00000000E+00  2.04095189E-02
 -6.19513524E-02  0.00000000E+00  0.00000000E+00 -3.76895502E-01  5.98245508E-03
  0.00000000E+00  0.00000000E+00 -1.14898032E-01  8.15747927E-03  0.00000000E+00
  0.00000000E+00  6.94755884E-04  7.95721089E-03  2.90868544E-02 -2.11774763E-02
  0.00000000E+00  0.00000000E+00  0.00000000E+00  9.22187062E-02  6.08736410E-02
  9.22187062E-02  6.08736410E-02  0.00000000E+00  0.00000000E+00  4.96763871E-01
  0.00000000E+00  0.00000000E+00  0.00000000E+00  3.40537395E-01  0.00000000E+00
  0.00000000E+00  0.00000000E+00  2.36801417E-02  0.00000000E+00  0.00000000E+00
  0.00000000E+00  0.00000000E+00  0.00000000E+00  0.00000000E+00 -4.31067270E-02
  0.00000000E+00  0.00000000E+00  0.00000000E+00  3.29686419E-01  0.00000000E+00
  0.00000000E+00  0.00000000E+00  1.77025726E-01  0.00000000E+00  0.00000000E+00
  0.00000000E+00  2.17007165E-02  0.00000000E+00  0.00000000E+00  0.00000000E+00
  0.00000000E+00  0.00000000E+00  0.00000000E+00  3.76000350E-02  0.00000000E+00
  0.00000000E+00  0.00000000E+00  0.00000000E+00  0.00000000E+00  0.00000000E+00
  0.00000000E+00  0.00000000E+00  5.48747949E-01  0.00000000E+00  0.00000000E+00
  0.00000000E+00  4.07546648E-01  0.00000000E+00  0.00000000E+00  0.00000000E+00
  7.83361084E-02  0.00000000E+00  0.00000000E+00  0.00000000E+00  0.00000000E+00
  0.00000000E+00  0.00000000E+00 -1.86441751E-02  0.00000000E+00  0.00000000E+00
  0.00000000E+00 -2.02691131E-01  0.00000000E+00  0.00000000E+00  0.00000000E+00
 -9.10855610E-02  0.00000000E+00  0.00000000E+00  0.00000000E+00 -1.23178770E-02
  0.00000000E+00  0.00000000E+00  0.00000000E+00  0.00000000E+00  0.00000000E+00
  0.00000000E+00  6.51541421E-02 -1.89120854E-01 -2.34249730E-01  1.89120854E-01
  2.34249730E-01  0.00000000E+00  0.00000000E+00 -2.48540525E-01  0.00000000E+00
  0.00000000E+00  0.00000000E+00 -1.84176898E-01  0.00000000E+00  0.00000000E+00
  0.00000000E+00 -5.44222284E-01  0.00000000E+00  0.00000000E+00  0.00000000E+00
  0.00000000E+00  0.00000000E+00  0.00000000E+00  2.89748636E-03  0.00000000E+00
  0.00000000E+00  0.00000000E+00  1.71545014E-01  0.00000000E+00  0.00000000E+00
  0.00000000E+00  2.10565136E-01  0.00000000E+00  0.00000000E+00  0.00000000E+00
  1.14384200E+00  0.00000000E+00  0.00000000E+00  0.00000000E+00  0.00000000E+00
  0.00000000E+00  0.00000000E+00 -2.94346380E-02  0.00000000E+00  0.00000000E+00
  0.00000000E+00  0.00000000E+00  0.00000000E+00  2.88398972E-03 -2.46000284E-02
  0.00000000E+00  0.00000000E+00 -4.10264205E-02 -3.41810185E-02  0.00000000E+00
  0.00000000E+00  3.82934215E-02 -1.24587311E+00  0.00000000E+00  0.00000000E+00
  4.59578186E-01 -3.19759056E-03 -4.25947486E-03 -1.46703462E-02  0.00000000E+00
  0.00000000E+00  0.00000000E+00  4.18095967E-02 -1.18831947E-01  0.00000000E+00
  0.00000000E+00  9.75422950E-02  1.18157464E-01  0.00000000E+00  0.00000000E+00
  3.50550086E-01  2.00849717E+00  0.00000000E+00  0.00000000E+00 -2.98660600E-01
  1.00577793E-03 -1.46054300E-02  1.06373250E-02  0.00000000E+00  0.00000000E+00
  0.00000000E+00 -5.08519472E-04 -1.60628274E-01 -5.08519472E-04 -1.60628274E-01
 -2.00212792E-02  1.11025106E-01  0.00000000E+00  0.00000000E+00  7.76996411E-03
 -4.98255904E-02  0.00000000E+00  0.00000000E+00 -1.04794510E-01  2.26331697E+00
  0.00000000E+00  0.00000000E+00 -1.50269551E-01  1.60258797E-02  1.68139543E-02
  2.73835327E-02  0.00000000E+00  0.00000000E+00  0.00000000E+00  1.49862552E-02
  1.47920744E-02  0.00000000E+00  0.00000000E+00 -6.47764428E-03 -4.58046286E-01
  0.00000000E+00  0.00000000E+00 -2.22766530E-01 -1.74536934E+00  0.00000000E+00
  0.00000000E+00 -1.69626023E+00 -6.33541817E-04 -4.70044063E-03  9.40569221E-03
  0.00000000E+00  0.00000000E+00  0.00000000E+00  6.21437149E-03 -6.26735117E-02
  6.21437149E-03 -6.26735117E-02  0.00000000E+00  0.00000000E+00  0.00000000E+00
 -6.47743304E-03  0.00000000E+00  0.00000000E+00  0.00000000E+00  5.84297071E-02
  0.00000000E+00  0.00000000E+00  0.00000000E+00 -4.93808430E-01  0.00000000E+00
  0.00000000E+00  0.00000000E+00  0.00000000E+00  0.00000000E+00  0.00000000E+00
  7.72187320E-03  0.00000000E+00  0.00000000E+00  0.00000000E+00 -1.46086468E-01
  0.00000000E+00  0.00000000E+00  0.00000000E+00 -4.06250803E-02  0.00000000E+00
  0.00000000E+00  0.00000000E+00  1.49945809E+00  0.00000000E+00  0.00000000E+00
  0.00000000E+00  0.00000000E+00  0.00000000E+00  0.00000000E+00  6.65589709E-03
 -1.25203481E-02 -2.99839683E-01  1.25203481E-02  2.99839683E-01  0.00000000E+00
  0.00000000E+00 -2.44721517E-01  0.00000000E+00  0.00000000E+00  0.00000000E+00
 -3.33206017E-01  0.00000000E+00  0.00000000E+00  0.00000000E+00 -1.50968282E-01
  0.00000000E+00  0.00000000E+00  0.00000000E+00  0.00000000E+00  0.00000000E+00
  0.00000000E+00 -6.60140646E-03  0.00000000E+00  0.00000000E+00  0.00000000E+00
  4.05811676E-01  0.00000000E+00  0.00000000E+00  0.00000000E+00  8.14668439E-01
  0.00000000E+00  0.00000000E+00  0.00000000E+00 -7.24517581E-01  0.00000000E+00
  0.00000000E+00  0.00000000E+00  0.00000000E+00  0.00000000E+00  0.00000000E+00
 -2.03833885E-02  0.00000000E+00  0.00000000E+00  0.00000000E+00  0.00000000E+00
  0.00000000E+00  1.88294261E-02 -2.73681975E-02  0.00000000E+00  0.00000000E+00
 -7.45298134E-02 -1.38549006E-01  0.00000000E+00  0.00000000E+00 -2.78291879E-01
 -6.59470137E-01  0.00000000E+00  0.00000000E+00  1.91943162E+00  3.01895724E-03
  9.56069685E-04  4.30307154E-02  0.00000000E+00  0.00000000E+00  0.00000000E+00
 -8.21144639E-02 -4.10365617E-03  0.00000000E+00  0.00000000E+00 -5.62143247E-02
  1.67981058E+00  0.00000000E+00  0.00000000E+00 -1.61039663E-01  3.42173683E-01
  0.00000000E+00  0.00000000E+00 -4.82805083E-01 -2.49482714E-02 -2.90939453E-02
 -1.45191787E-02  0.00000000E+00  0.00000000E+00  0.00000000E+00 -3.34523381E-02
 -2.91035386E-01 -3.34523381E-02 -2.91035386E-01 -1.10712503E-02  2.96416177E-02
  0.00000000E+00  0.00000000E+00 -7.07718061E-02 -4.37563698E-03  0.00000000E+00
  0.00000000E+00 -8.63391923E-02 -7.74818828E-01  0.00000000E+00  0.00000000E+00
  7.89927767E-01 -1.54234795E-02  6.68228096E-03  5.81372603E-03  0.00000000E+00
  0.00000000E+00  0.00000000E+00  8.75227341E-02 -9.31342945E-02  0.00000000E+00
  0.00000000E+00  1.67043817E-01 -1.44440715E+00  0.00000000E+00  0.00000000E+00
  9.95158282E-01 -5.65155768E-01  0.00000000E+00  0.00000000E+00  2.53143371E-01
 -2.41962058E-02  1.98213723E-02  1.28981703E-02  0.00000000E+00  0.00000000E+00
  0.00000000E+00  1.10837859E-01  1.90480682E+00  1.10837859E-01  1.90480682E+00
  0.00000000E+00  0.00000000E+00  0.00000000E+00 -1.87865496E-01  0.00000000E+00
  0.00000000E+00  0.00000000E+00 -5.38248254E-01  0.00000000E+00  0.00000000E+00
  0.00000000E+00  1.88265084E+00  0.00000000E+00  0.00000000E+00  0.00000000E+00
  0.00000000E+00  0.00000000E+00  0.00000000E+00  1.84260530E-02  0.00000000E+00
  0.00000000E+00  0.00000000E+00  1.69008557E-02  0.00000000E+00  0.00000000E+00
  0.00000000E+00 -1.47475656E-01  0.00000000E+00  0.00000000E+00  0.00000000E+00
 -8.73081518E-01  0.00000000E+00  0.00000000E+00  0.00000000E+00  0.00000000E+00
  0.00000000E+00  0.00000000E+00  1.17969437E-03  1.93340911E-02 -7.52588015E-02
 -1.93340911E-02  7.52588015E-02  0.00000000E+00  0.00000000E+00 -2.42183050E-01
  0.00000000E+00  0.00000000E+00  0.00000000E+00 -6.25344140E-01  0.00000000E+00
  0.00000000E+00  0.00000000E+00  1.87375170E+00  0.00000000E+00  0.00000000E+00
  0.00000000E+00  0.00000000E+00  0.00000000E+00  0.00000000E+00  1.93307264E-02
  0.00000000E+00  0.00000000E+00  0.00000000E+00  6.57552834E-02  0.00000000E+00
  0.00000000E+00  0.00000000E+00 -4.22949533E-02  0.00000000E+00  0.00000000E+00
  0.00000000E+00 -9.63026939E-01  0.00000000E+00  0.00000000E+00  0.00000000E+00
  0.00000000E+00  0.00000000E+00  0.00000000E+00 -8.59871474E-03  0.00000000E+00
  0.00000000E+00  0.00000000E+00  0.00000000E+00  0.00000000E+00  1.16734171E-01
 -1.39347080E-02  0.00000000E+00  0.00000000E+00  6.92685305E-03 -1.89108743E+00
  0.00000000E+00  0.00000000E+00 -1.70250963E-01  5.36920843E+00  0.00000000E+00
  0.00000000E+00 -6.49060002E-01  9.74470898E-02  9.51419578E-02  1.07840929E-01
  0.00000000E+00  0.00000000E+00  0.00000000E+00  2.19905712E-02  2.24890889E-02
  0.00000000E+00  0.00000000E+00  8.00772691E-02 -1.16652428E+00  0.00000000E+00
  0.00000000E+00  1.08609896E-01 -2.70161683E+00  0.00000000E+00  0.00000000E+00
 -1.40364561E+00  3.38052827E-02  2.93418290E-02 -5.32769860E-02  0.00000000E+00
  0.00000000E+00  0.00000000E+00 -1.60858307E-02  6.34103900E-02 -1.60858307E-02
  6.34103900E-02  0.00000000E+00  0.00000000E+00  0.00000000E+00  1.39193164E-01
  0.00000000E+00  0.00000000E+00  0.00000000E+00  3.48476312E-01  0.00000000E+00
  0.00000000E+00  0.00000000E+00  6.70970957E-01  0.00000000E+00  0.00000000E+00
  0.00000000E+00  0.00000000E+00  0.00000000E+00  0.00000000E+00  1.06123475E-02
  0.00000000E+00  0.00000000E+00  0.00000000E+00 -4.31214489E-01  0.00000000E+00
  0.00000000E+00  0.00000000E+00 -1.91440172E+00  0.00000000E+00  0.00000000E+00
  0.00000000E+00 -9.71915341E-01  0.00000000E+00  0.00000000E+00  0.00000000E+00
  0.00000000E+00  0.00000000E+00  0.00000000E+00 -3.92852975E-03  2.95026832E-02
  2.17786849E+00 -2.95026832E-02 -2.17786849E+00 -5.74767399E-02 -4.69117205E-02
  0.00000000E+00  0.00000000E+00 -2.44563300E-01  2.03180158E+00  0.00000000E+00
  0.00000000E+00 -1.37161431E+00  3.93216196E+00  0.00000000E+00  0.00000000E+00
 -1.31421447E+00 -5.23268320E-02 -5.90760145E-02  2.04001725E-02  0.00000000E+00
  0.00000000E+00  0.00000000E+00  9.48723365E-02 -1.39380358E-01  0.00000000E+00
  0.00000000E+00 -1.81294907E-02 -3.58730707E+00  0.00000000E+00  0.00000000E+00
 -3.18837555E+00 -1.49518693E+00  0.00000000E+00  0.00000000E+00  2.03081944E-02
  6.61446988E-03 -3.99723303E-02 -2.13278911E-02  0.00000000E+00  0.00000000E+00
  0.00000000E+00 -6.46750512E-02 -3.64527614E-01 -6.46750512E-02 -3.64527614E-01
  0.00000000E+00  0.00000000E+00  1.04552010E-01  0.00000000E+00  0.00000000E+00
  0.00000000E+00 -1.56559240E-01  0.00000000E+00  0.00000000E+00  0.00000000E+00
 -2.17151605E-01  0.00000000E+00  0.00000000E+00  0.00000000E+00  0.00000000E+00
  0.00000000E+00  0.00000000E+00  8.82791438E-02  0.00000000E+00  0.00000000E+00
  0.00000000E+00 -1.10491683E+00  0.00000000E+00  0.00000000E+00  0.00000000E+00
  1.46912083E+00  0.00000000E+00  0.00000000E+00  0.00000000E+00 -3.88025415E-01
  0.00000000E+00  0.00000000E+00  0.00000000E+00  0.00000000E+00  0.00000000E+00
  0.00000000E+00 -1.06674861E-02  0.00000000E+00  0.00000000E+00  0.00000000E+00
  0.00000000E+00  0.00000000E+00  0.00000000E+00  0.00000000E+00  0.00000000E+00
 -9.52438681E-02  0.00000000E+00  0.00000000E+00  0.00000000E+00 -4.02924897E-01
  0.00000000E+00  0.00000000E+00  0.00000000E+00 -6.06189732E-01  0.00000000E+00
  0.00000000E+00  0.00000000E+00  0.00000000E+00  0.00000000E+00  0.00000000E+00
  1.39211230E-02  0.00000000E+00  0.00000000E+00  0.00000000E+00 -8.87224901E-01
  0.00000000E+00  0.00000000E+00  0.00000000E+00  2.85723825E+00  0.00000000E+00
  0.00000000E+00  0.00000000E+00  2.36675293E-02  0.00000000E+00  0.00000000E+00
  0.00000000E+00  0.00000000E+00  0.00000000E+00  0.00000000E+00  1.09271901E-01
 -3.63062462E-01 -1.00604598E+00  3.63062462E-01  1.00604598E+00  4.83705903E-02
 -1.78336212E-01  0.00000000E+00  0.00000000E+00  3.04004276E-01 -1.12019049E-01
  0.00000000E+00  0.00000000E+00  5.82795782E-01 -9.75205261E-01  0.00000000E+00
  0.00000000E+00  1.32949178E-01 -4.23736727E-02 -7.62745396E-02  1.45274173E-01
  0.00000000E+00  0.00000000E+00  0.00000000E+00 -8.45490607E-02 -3.56842573E-01
  0.00000000E+00  0.00000000E+00  9.70777627E-01  2.11940617E+00  0.00000000E+00
  0.00000000E+00 -6.58840699E-01  5.41890136E-02  0.00000000E+00  0.00000000E+00
  3.95092927E-01  9.44086388E-02 -6.41138321E-02 -2.15701186E-01  0.00000000E+00
  0.00000000E+00  0.00000000E+00 -2.87900152E-01 -1.19171199E-01 -2.87900152E-01
 -1.19171199E-01  0.00000000E+00  0.00000000E+00  0.00000000E+00 -2.60608128E-01
  0.00000000E+00  0.00000000E+00  0.00000000E+00  2.04534306E-01  0.00000000E+00
  0.00000000E+00  0.00000000E+00  3.82048206E-01  0.00000000E+00  0.00000000E+00
  0.00000000E+00  0.00000000E+00  0.00000000E+00  0.00000000E+00 -1.41252473E-01
  0.00000000E+00  0.00000000E+00  0.00000000E+00  7.34407767E-01  0.00000000E+00
  0.00000000E+00  0.00000000E+00 -1.44083402E+00  0.00000000E+00  0.00000000E+00
  0.00000000E+00 -5.70919960E-01  0.00000000E+00  0.00000000E+00  0.00000000E+00
  0.00000000E+00  0.00000000E+00  0.00000000E+00  2.18912980E-01 -7.41463100E-01
  1.73838586E+00  7.41463100E-01 -1.73838586E+00 -1.49803974E-02 -8.88561477E-02
  0.00000000E+00  0.00000000E+00  8.44218251E-02  3.53710670E-01  0.00000000E+00
  0.00000000E+00 -3.64764689E-01 -7.63230584E-01  0.00000000E+00  0.00000000E+00
  4.78398056E-01 -3.22620481E-03 -9.78659653E-03 -7.21918815E-02  0.00000000E+00
  0.00000000E+00  0.00000000E+00 -6.41585275E-02  2.57000363E-01  0.00000000E+00
  0.00000000E+00 -5.79990778E-01 -9.65419288E-01  0.00000000E+00  0.00000000E+00
  7.36831717E-01 -3.14523073E-01  0.00000000E+00  0.00000000E+00  2.49861520E-01
  1.98815703E-01 -1.99847286E-01  2.78076016E-02  0.00000000E+00  0.00000000E+00
  0.00000000E+00 -8.28002720E-01  1.56622780E+00 -8.28002720E-01  1.56622780E+00
 -1.30723774E-02  2.72566446E-01  0.00000000E+00  0.00000000E+00 -2.33025887E-02
 -1.16929532E+00  0.00000000E+00  0.00000000E+00 -1.41035762E-02 -2.75437508E+00
  0.00000000E+00  0.00000000E+00  1.54360481E+00  1.77520381E-01  1.29945809E-01
 -9.49254797E-02  0.00000000E+00  0.00000000E+00  0.00000000E+00 -4.27305233E-02
 -2.03232379E+00  0.00000000E+00  0.00000000E+00 -2.07412931E-01  5.28062895E+00
  0.00000000E+00  0.00000000E+00  1.08960119E+00  8.07571162E-01  0.00000000E+00
  0.00000000E+00  6.77400007E-02 -4.94431015E-02 -1.40552974E-01 -7.95131881E-02
  0.00000000E+00  0.00000000E+00  0.00000000E+00  1.60671889E-03 -4.06660098E-01
  1.60671889E-03 -4.06660098E-01  1.18349456E-02 -4.31768228E-02  0.00000000E+00
  0.00000000E+00 -8.37340525E-01 -1.27267099E+00  0.00000000E+00  0.00000000E+00
  2.58120762E+00 -3.05854767E+00  0.00000000E+00  0.00000000E+00  2.23334172E-01
 -1.24785002E-02 -5.74103992E-02 -1.82307073E-01  0.00000000E+00  0.00000000E+00
  0.00000000E+00  4.04862251E-02 -3.23115148E-01  0.00000000E+00  0.00000000E+00
  1.31582247E-01  3.73411812E+00  0.00000000E+00  0.00000000E+00  1.82885050E+00
  9.07451139E-01  0.00000000E+00  0.00000000E+00  4.06601030E-01 -4.61329874E-02
 -2.41595357E-01  3.86599912E-01  0.00000000E+00  0.00000000E+00  0.00000000E+00
 -1.41277296E-01  1.22167833E-01 -1.41277296E-01  1.22167833E-01  0.00000000E+00
  0.00000000E+00 -1.00425794E+00  0.00000000E+00  0.00000000E+00  0.00000000E+00
  1.61208777E+00  0.00000000E+00  0.00000000E+00  0.00000000E+00 -9.68446581E-01
  0.00000000E+00  0.00000000E+00  0.00000000E+00  0.00000000E+00  0.00000000E+00
  0.00000000E+00  5.40771591E-02  0.00000000E+00  0.00000000E+00  0.00000000E+00
 -9.72993168E-02  0.00000000E+00  0.00000000E+00  0.00000000E+00 -1.62249107E-01
  0.00000000E+00  0.00000000E+00  0.00000000E+00  4.05807783E-01  0.00000000E+00
  0.00000000E+00  0.00000000E+00  0.00000000E+00  0.00000000E+00  0.00000000E+00
 -4.82186732E-02  0.00000000E+00  0.00000000E+00  0.00000000E+00  0.00000000E+00
  0.00000000E+00  0.00000000E+00  0.00000000E+00  0.00000000E+00 -9.31868804E-01
  0.00000000E+00  0.00000000E+00  0.00000000E+00  1.70392493E+00  0.00000000E+00
  0.00000000E+00  0.00000000E+00 -9.20342636E-01  0.00000000E+00  0.00000000E+00
  0.00000000E+00  0.00000000E+00  0.00000000E+00  0.00000000E+00  1.23117332E-01
  0.00000000E+00  0.00000000E+00  0.00000000E+00 -7.15525779E-02  0.00000000E+00
  0.00000000E+00  0.00000000E+00 -4.81630702E-01  0.00000000E+00  0.00000000E+00
  0.00000000E+00  3.86390485E-01  0.00000000E+00  0.00000000E+00  0.00000000E+00
  0.00000000E+00  0.00000000E+00  0.00000000E+00 -1.64863997E-01  1.01308882E-01
  1.22232190E-01 -1.01308882E-01 -1.22232190E-01 -1.10016150E-01 -1.96901650E+00
  0.00000000E+00  0.00000000E+00 -1.63096953E-02  5.64394300E+00  0.00000000E+00
  0.00000000E+00 -8.06913804E-01 -2.66692959E+00  0.00000000E+00  0.00000000E+00
  1.05238937E-01 -4.71098950E-01 -3.81070214E-01 -6.81559319E-01  0.00000000E+00
  0.00000000E+00  0.00000000E+00 -2.71056103E-02 -2.55885415E-01  0.00000000E+00
  0.00000000E+00 -8.76014967E-02 -1.18867198E+00  0.00000000E+00  0.00000000E+00
 -1.16919406E+00  1.22156191E+00  0.00000000E+00  0.00000000E+00  7.14120277E-01
 -2.17898721E-02  1.92281550E-01 -1.12601812E-01  0.00000000E+00  0.00000000E+00
  0.00000000E+00  3.96831323E-02 -4.94684101E-02  3.96831323E-02 -4.94684101E-02
  0.00000000E+00  0.00000000E+00  0.00000000E+00  0.00000000E+00  0.00000000E+00
  0.00000000E+00  0.00000000E+00  0.00000000E+00  0.00000000E+00  0.00000000E+00
  0.00000000E+00  0.00000000E+00  0.00000000E+00  0.00000000E+00  0.00000000E+00
  0.00000000E+00  4.95323929E-01  0.00000000E+00  0.00000000E+00  0.00000000E+00
  0.00000000E+00  0.00000000E+00  0.00000000E+00  0.00000000E+00  0.00000000E+00
  0.00000000E+00  0.00000000E+00  0.00000000E+00  0.00000000E+00  0.00000000E+00
  0.00000000E+00  0.00000000E+00  0.00000000E+00  0.00000000E+00  0.00000000E+00
  8.04797524E-01  0.00000000E+00  0.00000000E+00  0.00000000E+00  0.00000000E+00
  0.00000000E+00  0.00000000E+00  0.00000000E+00  0.00000000E+00 -1.55273589E-01
  0.00000000E+00  0.00000000E+00  0.00000000E+00 -1.59454454E-01  0.00000000E+00
  0.00000000E+00  0.00000000E+00  8.51788935E-02  0.00000000E+00  0.00000000E+00
  0.00000000E+00  0.00000000E+00  0.00000000E+00  0.00000000E+00 -5.30188920E-01
  0.00000000E+00  0.00000000E+00  0.00000000E+00 -2.31528500E-01  0.00000000E+00
  0.00000000E+00  0.00000000E+00  1.48163467E-01  0.00000000E+00  0.00000000E+00
  0.00000000E+00 -5.43993829E-02  0.00000000E+00  0.00000000E+00  0.00000000E+00
  0.00000000E+00  0.00000000E+00  0.00000000E+00  6.78699063E-01  0.00000000E+00
  0.00000000E+00  0.00000000E+00  0.00000000E+00  0.00000000E+00  1.18898113E-02
  2.17193511E-01  0.00000000E+00  0.00000000E+00 -3.75689778E-02 -7.82338113E-01
  0.00000000E+00  0.00000000E+00  3.33390404E-01 -2.62187158E-01  0.00000000E+00
  0.00000000E+00  1.26859913E-01 -6.83643873E-01  7.37826746E-01  7.21588302E-02
  0.00000000E+00  0.00000000E+00  0.00000000E+00 -2.94131713E-02 -2.46481127E-01
  0.00000000E+00  0.00000000E+00  4.47742983E-03  1.36029400E+00  0.00000000E+00
  0.00000000E+00  1.57390179E-01  2.33342075E-02  0.00000000E+00  0.00000000E+00
  5.13515174E-03 -4.51476780E-01  3.69455148E-01  5.10884021E-02  0.00000000E+00
  0.00000000E+00  0.00000000E+00 -3.24714693E-01 -9.55340237E-02 -3.24714693E-01
 -9.55340237E-02  0.00000000E+00  0.00000000E+00  0.00000000E+00  2.49614831E-01
  0.00000000E+00  0.00000000E+00  0.00000000E+00 -4.32194523E-01  0.00000000E+00
  0.00000000E+00  0.00000000E+00 -5.92827361E-02  0.00000000E+00  0.00000000E+00
  0.00000000E+00  0.00000000E+00  0.00000000E+00  0.00000000E+00  7.20791403E-01
  0.00000000E+00  0.00000000E+00  0.00000000E+00  3.32477068E-01  0.00000000E+00
  0.00000000E+00  0.00000000E+00  8.35716128E-01  0.00000000E+00  0.00000000E+00
  0.00000000E+00 -9.90571826E-02  0.00000000E+00  0.00000000E+00  0.00000000E+00
  0.00000000E+00  0.00000000E+00  0.00000000E+00 -5.02742315E-01 -6.42317163E-01
 -2.50368151E-02  6.42317163E-01  2.50368151E-02  0.00000000E+00  0.00000000E+00
  0.00000000E+00  0.00000000E+00  0.00000000E+00  0.00000000E+00  0.00000000E+00
  0.00000000E+00  0.00000000E+00  0.00000000E+00  0.00000000E+00  0.00000000E+00
  0.00000000E+00  0.00000000E+00  0.00000000E+00  0.00000000E+00  8.79193190E-01
  0.00000000E+00  0.00000000E+00  0.00000000E+00  0.00000000E+00  0.00000000E+00
  0.00000000E+00  0.00000000E+00  0.00000000E+00  0.00000000E+00  0.00000000E+00
  0.00000000E+00  0.00000000E+00  0.00000000E+00  0.00000000E+00  0.00000000E+00
  0.00000000E+00  0.00000000E+00  0.00000000E+00 -6.08791758E-01  0.00000000E+00
  0.00000000E+00  0.00000000E+00  0.00000000E+00  0.00000000E+00  0.00000000E+00
  2.86924005E-03  1.22868994E-02  0.00000000E+00  0.00000000E+00  6.65016133E-02
 -4.15839049E-01  0.00000000E+00  0.00000000E+00  2.18468081E-01 -6.89274652E-01
  0.00000000E+00  0.00000000E+00  2.76066463E-01  4.41284722E-01 -5.62707255E-01
  9.51711418E-02  0.00000000E+00  0.00000000E+00  0.00000000E+00 -6.58721621E-02
 -2.82766225E-01  0.00000000E+00  0.00000000E+00 -7.44692411E-02  1.48529203E+00
  0.00000000E+00  0.00000000E+00  2.82930147E-01  7.44615755E-02  0.00000000E+00
  0.00000000E+00  9.76099685E-02 -9.57267824E-01  6.41460555E-01  1.71314992E-01
  0.00000000E+00  0.00000000E+00  0.00000000E+00 -5.22708185E-01  1.42443653E-01
 -5.22708185E-01  1.42443653E-01 -3.09563296E-03 -7.18691087E-01  0.00000000E+00
  0.00000000E+00  6.84946852E-01  2.73051457E-01  0.00000000E+00  0.00000000E+00
 -2.49307162E-01 -1.12125885E+00  0.00000000E+00  0.00000000E+00  4.80794699E-01
 -3.03019847E-01 -1.40169275E-01  3.73102770E-02  0.00000000E+00  0.00000000E+00
  0.00000000E+00 -8.27070797E-02 -3.39278170E-01  0.00000000E+00  0.00000000E+00
  1.13665395E-01  1.19921338E+00  0.00000000E+00  0.00000000E+00  8.11193435E-01
  4.30534909E-01  0.00000000E+00  0.00000000E+00  4.11709762E-04 -4.15964994E-01
 -8.03782125E-01  1.05127844E+00  0.00000000E+00  0.00000000E+00  0.00000000E+00
  2.04527095E-01 -1.77396812E-02  2.04527095E-01 -1.77396812E-02  0.00000000E+00
  0.00000000E+00  3.72793756E-03  0.00000000E+00  0.00000000E+00  0.00000000E+00
 -5.75789833E-01  0.00000000E+00  0.00000000E+00  0.00000000E+00  1.26919571E-01
  0.00000000E+00  0.00000000E+00  0.00000000E+00  0.00000000E+00  0.00000000E+00
  0.00000000E+00  1.06655589E+00  0.00000000E+00  0.00000000E+00  0.00000000E+00
  3.06795363E-01  0.00000000E+00  0.00000000E+00  0.00000000E+00  3.07394577E-01
  0.00000000E+00  0.00000000E+00  0.00000000E+00 -1.12823198E-01  0.00000000E+00
  0.00000000E+00  0.00000000E+00  0.00000000E+00  0.00000000E+00  0.00000000E+00
  9.95889246E-01  0.00000000E+00  0.00000000E+00  0.00000000E+00  0.00000000E+00
  0.00000000E+00  0.00000000E+00  0.00000000E+00  0.00000000E+00 -4.94554352E-02
  0.00000000E+00  0.00000000E+00  0.00000000E+00 -4.73787029E-01  0.00000000E+00
  0.00000000E+00  0.00000000E+00  6.49474858E-02  0.00000000E+00  0.00000000E+00
  0.00000000E+00  0.00000000E+00  0.00000000E+00  0.00000000E+00  9.56664465E-01
  0.00000000E+00  0.00000000E+00  0.00000000E+00  1.51865438E-01  0.00000000E+00
  0.00000000E+00  0.00000000E+00  2.58366279E-01  0.00000000E+00  0.00000000E+00
  0.00000000E+00  7.58063373E-02  0.00000000E+00  0.00000000E+00  0.00000000E+00
  0.00000000E+00  0.00000000E+00  0.00000000E+00  1.16993582E+00  4.21006509E-01
 -3.76912511E-01 -4.21006509E-01  3.76912511E-01 -1.05898121E-01 -5.39636321E-01
  0.00000000E+00  0.00000000E+00 -3.16768720E-01  3.56584037E+00  0.00000000E+00
  0.00000000E+00 -2.23864352E+00  4.68961172E-01  0.00000000E+00  0.00000000E+00
 -5.21830827E-04 -8.94219315E-01 -8.62430359E-01  1.41902143E+00  0.00000000E+00
  0.00000000E+00  0.00000000E+00 -7.16026513E-02 -1.37142692E+00  0.00000000E+00
  0.00000000E+00 -1.45420049E+00 -2.14875369E+00  0.00000000E+00  0.00000000E+00
 -1.21070369E+00 -4.91665778E-02  0.00000000E+00  0.00000000E+00  3.87354667E-02
  4.07315792E-01  2.91339024E-01 -8.37470694E-01  0.00000000E+00  0.00000000E+00
  0.00000000E+00  8.88777022E-02 -4.88458152E-02  8.88777022E-02 -4.88458152E-02
 -4.87210664E-01 -3.16110825E-01  0.00000000E+00  0.00000000E+00  3.31069561E-01
  5.00555566E+00  0.00000000E+00  0.00000000E+00 -7.56375738E-02 -1.57513552E+00
  0.00000000E+00  0.00000000E+00 -1.65932729E-01 -1.57097466E+00 -1.58595183E+00
 -1.89657859E+00  0.00000000E+00  0.00000000E+00  0.00000000E+00  2.25257215E-01
 -1.32290083E+00  0.00000000E+00  0.00000000E+00  4.52869640E-01 -1.53691742E+00
  0.00000000E+00  0.00000000E+00 -4.36911272E-01  6.78999985E-01  0.00000000E+00
  0.00000000E+00  4.19223298E-01  8.20096981E-01  7.97548269E-01  1.30443035E+00
  0.00000000E+00  0.00000000E+00  0.00000000E+00 -3.25275385E-02  1.97934285E-01
 -3.25275385E-02  1.97934285E-01 -2.83588804E-01 -1.34174037E-01  0.00000000E+00
  0.00000000E+00 -1.20864532E-01  3.09035975E+00  0.00000000E+00  0.00000000E+00
 -3.49860497E-01 -2.13994745E+00  0.00000000E+00  0.00000000E+00  5.05429022E-01
 -9.86739753E-01 -9.53771541E-01 -7.48278038E-01  0.00000000E+00  0.00000000E+00
  0.00000000E+00 -4.51642983E-01  2.42198916E+00  0.00000000E+00  0.00000000E+00
 -1.15162424E-01  1.76658091E+00  0.00000000E+00  0.00000000E+00 -1.45917951E-01
  7.80348861E-01  0.00000000E+00  0.00000000E+00  3.23147158E-01 -1.60777162E+00
 -1.69205268E+00 -1.70976424E+00  0.00000000E+00  0.00000000E+00  0.00000000E+00
  1.58262395E-01 -2.87646820E-01  1.58262395E-01 -2.87646820E-01
Orthonormal basis                          R   N=        1764
  1.25516090E-02  6.84028742E-02  0.00000000E+00  0.00000000E+00 -2.80738249E-02
  1.03827797E-01  0.00000000E+00  0.00000000E+00 -6.91958803E-02  1.06956730E-01
  0.00000000E+00  0.00000000E+00 -7.29137267E-02  6.21610933E-02  6.27780112E-02
  8.05375242E-02  0.00000000E+00  0.00000000E+00  0.00000000E+00  2.40183732E-02
  1.16775183E-01  0.00000000E+00  0.00000000E+00  2.15332986E-02  1.37630441E-01
  0.00000000E+00  0.00000000E+00  2.64499419E-02  1.04184412E-01  0.00000000E+00
  0.00000000E+00  1.08620715E-02  8.35125982E-02  8.89717718E-02  9.94701439E-02
  0.00000000E+00  0.00000000E+00  0.00000000E+00  4.85470840E-02  9.12041890E-02
  4.85470840E-02  9.12041890E-02  2.90933237E-02  1.34618938E-01  0.00000000E+00
  0.00000000E+00  2.20921925E-02  1.51528047E-01  0.00000000E+00  0.00000000E+00
  8.88931288E-02  9.02824519E-02  0.00000000E+00  0.00000000E+00  1.38621748E-01
  1.18736570E-01  1.17358517E-01  1.07408119E-01  0.00000000E+00  0.00000000E+00
  0.00000000E+00 -1.53309521E-02 -5.64947705E-02  0.00000000E+00  0.00000000E+00
  1.13587845E-01 -4.66374831E-02  0.00000000E+00  0.00000000E+00  1.96154572E-01
 -1.69892708E-02  0.00000000E+00  0.00000000E+00  1.50367053E-01 -4.79985678E-02
 -6.15329351E-02 -1.63731129E-02  0.00000000E+00  0.00000000E+00  0.00000000E+00
 -7.83747060E-02 -9.25091889E-02 -7.83747060E-02 -9.25091889E-02  2.88242112E-04
  2.86464464E-03  0.00000000E+00  0.00000000E+00  3.21069445E-01  5.55483521E-02
  0.00000000E+00  0.00000000E+00  3.34037923E-01  1.75105887E-01  0.00000000E+00
  0.00000000E+00  1.02804344E-01  4.13210011E-02  4.86430326E-02 -4.97518152E-02
  0.00000000E+00  0.00000000E+00  0.00000000E+00 -4.97133810E-02 -1.14411039E-01
  0.00000000E+00  0.00000000E+00 -2.73709649E-01  3.28443555E-02  0.00000000E+00
  0.00000000E+00 -1.32965029E-01  1.90884861E-01  0.00000000E+00  0.00000000E+00
  4.81907630E-02 -8.20700539E-02 -2.84787506E-02 -1.20195327E-01  0.00000000E+00
  0.00000000E+00  0.00000000E+00  1.19145463E-01  1.21275751E-01  1.19145463E-01
  1.21275751E-01 -2.59725892E-01 -3.32583038E-01  0.00000000E+00  0.00000000E+00
  4.76850331E-02 -8.60076144E-02  0.00000000E+00  0.00000000E+00 -1.69608454E-03
  1.64832970E-01  0.00000000E+00  0.00000000E+00  2.63024591E-01 -1.56585386E-01
 -1.65399139E-01 -9.72055762E-03  0.00000000E+00  0.00000000E+00  0.00000000E+00
  1.81187010E-01  2.30747840E-01  0.00000000E+00  0.00000000E+00 -9.18655535E-02
  5.00478017E-02  0.00000000E+00  0.00000000E+00  9.44992675E-02 -3.73682176E-02
  0.00000000E+00  0.00000000E+00  4.57668340E-01  2.54072362E-01  2.25988614E-01
 -5.55752067E-02  0.00000000E+00  0.00000000E+00  0.00000000E+00 -1.25553907E-02
 -8.63654082E-02 -1.25553907E-02 -8.63654082E-02  5.10283270E-01  2.14222139E-01
  0.00000000E+00  0.00000000E+00  2.54073438E-01  3.76178449E-02  0.00000000E+00
  0.00000000E+00  1.12670514E-01 -1.99356942E-01  0.00000000E+00  0.00000000E+00
  1.01997712E-01 -9.19379967E-02 -9.65936555E-02  2.20021403E-01  0.00000000E+00
  0.00000000E+00  0.00000000E+00  3.61346996E-01  2.33982366E-01  0.00000000E+00
  0.00000000E+00 -2.42519733E-01 -2.17636235E-02  0.00000000E+00  0.00000000E+00
 -1.12478378E-01 -3.12681561E-01  0.00000000E+00  0.00000000E+00 -1.61080341E-02
  6.70172741E-02  7.82440736E-02  2.39795669E-01  0.00000000E+00  0.00000000E+00
  0.00000000E+00  3.46966893E-02 -1.04458925E-01  3.46966893E-02 -1.04458925E-01
 -4.48583613E-01  1.84274287E-02  0.00000000E+00  0.00000000E+00  3.13617656E-01
  4.22010135E-02  0.00000000E+00  0.00000000E+00  1.14280279E-02 -7.43904402E-02
  0.00000000E+00  0.00000000E+00 -1.80432978E-01  1.06262256E-01  4.75906717E-02
  1.73714178E-01  0.00000000E+00  0.00000000E+00  0.00000000E+00  6.55352102E-01
 -3.43752820E-02  0.00000000E+00  0.00000000E+00  1.26452357E-01  1.42190500E-02
  0.00000000E+00  0.00000000E+00  7.22250565E-03  3.43071837E-02  0.00000000E+00
  0.00000000E+00 -2.74813336E-01  5.62230130E-02 -1.48739365E-01 -1.94205683E-01
  0.00000000E+00  0.00000000E+00  0.00000000E+00 -1.32268332E-01  2.36417734E-02
 -1.32268332E-01  2.36417734E-02  6.18248713E-01 -1.49161807E-01  0.00000000E+00
  0.00000000E+00 -8.32436774E-02 -3.53281504E-02  0.00000000E+00  0.00000000E+00
 -1.34855699E-01  2.11445475E-01  0.00000000E+00  0.00000000E+00 -7.25135045E-02
 -6.00349167E-02 -1.05845702E-01 -3.02320064E-01  0.00000000E+00  0.00000000E+00
  0.00000000E+00  3.88551188E-01 -1.46245071E-01  0.00000000E+00  0.00000000E+00
  1.46246593E-01  5.64147158E-02  0.00000000E+00  0.00000000E+00  1.24004282E-01
  2.89971925E-01  0.00000000E+00  0.00000000E+00  1.03936206E-01  3.95968161E-02
 -1.18105279E-01 -3.32014489E-01  0.00000000E+00  0.00000000E+00  0.00000000E+00
 -1.01240183E-01  7.41944692E-02 -1.01240183E-01  7.41944692E-02  1.37928024E-01
 -7.30811143E-03  0.00000000E+00  0.00000000E+00  5.14920856E-01  2.57570166E-02
  0.00000000E+00  0.00000000E+00 -8.99487982E-02 -8.82460677E-02  0.00000000E+00
  0.00000000E+00 -2.17988262E-01  1.27971022E-01 -5.62270059E-02 -5.03469577E-02
  0.00000000E+00  0.00000000E+00  0.00000000E+00 -4.58286373E-01  1.08652962E-01
  0.00000000E+00  0.00000000E+00  3.85491640E-02  4.48308438E-02  0.00000000E+00
  0.00000000E+00  1.33552118E-01 -7.89408294E-02  0.00000000E+00  0.00000000E+00
 -1.19470350E-01  5.43964891E-01  9.28918287E-02 -3.08852038E-01  0.00000000E+00
  0.00000000E+00  0.00000000E+00 -1.74011898E-01 -6.17662856E-02 -1.74011898E-01
 -6.17662856E-02  5.16841669E-02 -1.09309843E-02  0.00000000E+00  0.00000000E+00
  2.31413460E-01  3.70266415E-03  0.00000000E+00  0.00000000E+00 -9.13678562E-02
 -9.59904029E-02  0.00000000E+00  0.00000000E+00 -8.83048279E-02 -2.69554063E-01
  2.65651116E-01  3.70573832E-02  0.00000000E+00  0.00000000E+00  0.00000000E+00
  2.89582824E-02 -4.59310038E-02  0.00000000E+00  0.00000000E+00  3.19225313E-01
 -3.73344213E-02  0.00000000E+00  0.00000000E+00  1.70242477E-01 -1.40062087E-01
  0.00000000E+00  0.00000000E+00 -6.35082983E-03 -3.86023235E-01  6.29257795E-01
 -3.42375494E-01  0.00000000E+00  0.00000000E+00  0.00000000E+00  2.68694683E-01
 -1.02998225E-02  2.68694683E-01 -1.02998225E-02  9.62317824E-02 -1.17634716E-01
  0.00000000E+00  0.00000000E+00  6.47948747E-02 -6.27339071E-02  0.00000000E+00
  0.00000000E+00  2.33506128E-01  9.52594023E-02  0.00000000E+00  0.00000000E+00
  1.38253288E-01 -3.82714538E-01 -4.31520512E-01  6.22159735E-01  0.00000000E+00
  0.00000000E+00  0.00000000E+00 -1.84276126E-01 -7.50059854E-03  0.00000000E+00
  0.00000000E+00  5.16298656E-01 -3.25029999E-02  0.00000000E+00  0.00000000E+00
 -1.52877034E-01  2.37948182E-01  0.00000000E+00  0.00000000E+00 -1.23894550E-01
  1.20927209E-02 -8.66749279E-02  2.52081685E-02  0.00000000E+00  0.00000000E+00
  0.00000000E+00 -4.15878768E-02  1.06806132E-01 -4.15878768E-02  1.06806132E-01
 -6.90571970E-03  2.71433521E-02  0.00000000E+00  0.00000000E+00 -1.48448417E-02
  6.68503329E-04  0.00000000E+00  0.00000000E+00 -2.39654474E-02 -5.21125044E-02
  0.00000000E+00  0.00000000E+00  1.10437577E-02  8.15939733E-01 -7.79341447E-01
  3.67975221E-03  0.00000000E+00  0.00000000E+00  0.00000000E+00  4.84712485E-02
 -6.15031588E-02  0.00000000E+00  0.00000000E+00  1.52224483E-01 -2.66551812E-02
  0.00000000E+00  0.00000000E+00  4.29853241E-02 -1.11891538E-01  0.00000000E+00
  0.00000000E+00  5.72937833E-02 -1.47583823E-01  1.59253110E-01 -1.15624251E-01
  0.00000000E+00  0.00000000E+00  0.00000000E+00  2.81693931E-01 -5.55365223E-03
  2.81693931E-01 -5.55365223E-03 -1.95816420E-02  2.03239956E-01  0.00000000E+00
  0.00000000E+00 -2.40188773E-01  2.09813552E-02  0.00000000E+00  0.00000000E+00
  1.07824386E-01 -1.54727007E-01  0.00000000E+00  0.00000000E+00  1.89360605E-01
 -1.10221426E-01  2.99298107E-01 -2.97665533E-02  0.00000000E+00  0.00000000E+00
  0.00000000E+00  9.23687994E-02 -1.58252673E-01  0.00000000E+00  0.00000000E+00
  3.78850993E-01 -2.85925148E-03  0.00000000E+00  0.00000000E+00 -1.88279341E-01
 -3.77936303E-01  0.00000000E+00  0.00000000E+00  1.72272138E-01  7.77786566E-01
 -5.48571313E-01 -3.59134680E-01  0.00000000E+00  0.00000000E+00  0.00000000E+00
  6.24880579E-01  8.54283011E-02  6.24880579E-01  8.54283011E-02 -1.21514560E-01
  2.59018138E-01  0.00000000E+00  0.00000000E+00  6.33036191E-01 -1.99798029E-01
  0.00000000E+00  0.00000000E+00 -5.58165832E-01  2.59536341E-02  0.00000000E+00
  0.00000000E+00 -6.03009807E-01 -3.33026496E-01 -2.58592384E-01  4.20147371E-02
  0.00000000E+00  0.00000000E+00  0.00000000E+00 -8.98333311E-02 -2.45920104E-01
  0.00000000E+00  0.00000000E+00  1.31862257E-02  9.43880856E-02  0.00000000E+00
  0.00000000E+00  1.78583348E-01 -6.33434414E-02  0.00000000E+00  0.00000000E+00
  7.95385092E-01 -3.11432236E-01 -6.02982784E-01  3.82213330E-01  0.00000000E+00
  0.00000000E+00  0.00000000E+00  1.60548472E-01  4.05441335E-02  1.60548472E-01
  4.05441335E-02 -3.30071056E-01  1.48788565E+00  0.00000000E+00  0.00000000E+00
 -1.49567708E-01 -1.53014580E-01  0.00000000E+00  0.00000000E+00 -1.35754078E-01
  4.28146926E-02  0.00000000E+00  0.00000000E+00  3.21279436E-01 -4.42037113E-01
 -4.97127044E-01 -4.19218073E-01  0.00000000E+00  0.00000000E+00  0.00000000E+00
  3.67853508E-02  3.07527296E-02  0.00000000E+00  0.00000000E+00 -2.63694567E-02
 -6.67368125E-02  0.00000000E+00  0.00000000E+00 -2.58292660E-01  3.04186633E-01
  0.00000000E+00  0.00000000E+00  8.10976664E-02  1.33167682E-01  3.91153007E-01
 -3.74795075E-01  0.00000000E+00  0.00000000E+00  0.00000000E+00 -2.08161603E-01
  3.87274490E-02 -2.08161603E-01  3.87274490E-02  6.59603859E-02 -1.36566808E-01
  0.00000000E+00  0.00000000E+00  7.39942408E-01 -2.25839187E-01  0.00000000E+00
  0.00000000E+00 -5.98917794E-01 -6.05859372E-02  0.00000000E+00  0.00000000E+00
  9.96578532E-01  4.54462049E-01  4.20806529E-01 -6.07704934E-01  0.00000000E+00
  0.00000000E+00  0.00000000E+00 -1.49253094E-03  2.31359235E-01  0.00000000E+00
  0.00000000E+00  8.81922889E-01  7.25773406E-03  0.00000000E+00  0.00000000E+00
 -8.49440424E-01  3.94108835E-02  0.00000000E+00  0.00000000E+00  4.22051446E-02
 -1.68047308E-01 -4.18053305E-02  5.39751691E-01  0.00000000E+00  0.00000000E+00
  0.00000000E+00 -1.57437645E-01  1.91853276E-01 -1.57437645E-01  1.91853276E-01
 -8.68492685E-02  1.54871323E-02  0.00000000E+00  0.00000000E+00  3.92639898E-01
 -7.41548336E-02  0.00000000E+00  0.00000000E+00 -4.34596475E-01  2.50599346E-01
  0.00000000E+00  0.00000000E+00  6.23609776E-01 -3.18018951E-01 -2.07920967E-01
 -3.47098524E-01  0.00000000E+00  0.00000000E+00  0.00000000E+00  3.51183516E-02
  2.26848531E-01  0.00000000E+00  0.00000000E+00 -1.39696550E-01 -4.46699975E-01
  0.00000000E+00  0.00000000E+00  1.06714527E+00  8.40597449E-01  0.00000000E+00
  0.00000000E+00 -1.03933393E+00  1.87178195E-01 -3.31874066E-01  5.01987174E-01
  0.00000000E+00  0.00000000E+00  0.00000000E+00  6.41217573E-01 -5.34693557E-01
  6.41217573E-01 -5.34693557E-01  2.49566720E-01  8.92115048E-02  0.00000000E+00
  0.00000000E+00 -1.85270674E-01 -1.04638435E+00  0.00000000E+00  0.00000000E+00
 -4.34598694E-01 -7.50470858E-01  0.00000000E+00  0.00000000E+00 -4.90616561E-01
  7.92144059E-01  8.35658814E-01  1.12787175E+00  0.00000000E+00  0.00000000E+00
  0.00000000E+00  6.01507074E-02  8.09626752E-02  0.00000000E+00  0.00000000E+00
 -2.98376572E-01 -1.07936874E+00  0.00000000E+00  0.00000000E+00 -1.01591040E+00
  1.89125220E+00  0.00000000E+00  0.00000000E+00  8.54956074E-01  3.17648661E-01
  2.95813982E-01 -3.75433785E-01  0.00000000E+00  0.00000000E+00  0.00000000E+00
  2.23229318E-01 -8.57737636E-01  2.23229318E-01 -8.57737636E-01 -1.26339954E-01
  1.02057933E-01  0.00000000E+00  0.00000000E+00  9.52469947E-02  1.27920037E-01
  0.00000000E+00  0.00000000E+00  2.10085938E+00  1.68243574E-01  0.00000000E+00
  0.00000000E+00 -1.57021173E+00 -1.36462823E-01 -1.04478276E-01 -1.58539520E+00
  0.00000000E+00  0.00000000E+00  0.00000000E+00  2.22491551E-01  6.47288470E-01
  0.00000000E+00  0.00000000E+00  1.42492754E+00 -1.58852520E-01  0.00000000E+00
  0.00000000E+00 -3.81447460E-01  3.90920009E-01  0.00000000E+00  0.00000000E+00
  3.09478693E-01  2.27011974E-01  2.84020455E-01  1.12828829E+00  0.00000000E+00
  0.00000000E+00  0.00000000E+00  1.23580323E-01 -8.36591352E-01  1.23580323E-01
 -8.36591352E-01  3.87217643E-03  1.45027671E-01  0.00000000E+00  0.00000000E+00
 -1.58881422E-01 -1.32537498E-01  0.00000000E+00  0.00000000E+00  3.00185257E-01
 -4.05277782E-01  0.00000000E+00  0.00000000E+00 -1.33059186E-01  1.03433542E-01
  9.63345959E-02 -1.74692389E-01  0.00000000E+00  0.00000000E+00  0.00000000E+00
 -3.61964904E-01  3.61653740E+00  0.00000000E+00  0.00000000E+00  3.78688291E-02
 -7.32261054E-01  0.00000000E+00  0.00000000E+00  4.49051055E-01  5.93457343E-02
  0.00000000E+00  0.00000000E+00  2.58279327E-01 -1.35272978E+00 -1.51713581E+00
 -1.46796696E+00  0.00000000E+00  0.00000000E+00  0.00000000E+00  6.87566648E-02
  5.92671411E-01  6.87566648E-02  5.92671411E-01  4.12851570E-02  6.79793207E-02
  0.00000000E+00  0.00000000E+00  9.93184521E-02 -9.89386784E-01  0.00000000E+00
  0.00000000E+00  8.82305253E-01 -1.42721493E+00  0.00000000E+00  0.00000000E+00
  2.43118265E-02  2.77133373E-01  2.02314824E-01 -2.76494924E-01  0.00000000E+00
  0.00000000E+00  0.00000000E+00  3.31033548E-01 -5.34109562E-01  0.00000000E+00
  0.00000000E+00  1.05629482E-01 -2.66817250E+00  0.00000000E+00  0.00000000E+00
  1.91983462E+00  2.66128691E-01  0.00000000E+00  0.00000000E+00  6.03514844E-01
  9.87284595E-01  8.22768419E-01  1.28601050E+00  0.00000000E+00  0.00000000E+00
  0.00000000E+00 -2.78501973E-01  2.11576995E+00 -2.78501973E-01  2.11576995E+00
 -4.91907440E-01 -1.60938800E+00  0.00000000E+00  0.00000000E+00  9.36176561E-02
  9.02961752E+00  0.00000000E+00  0.00000000E+00 -1.49178425E+00 -5.07070990E+00
  0.00000000E+00  0.00000000E+00  3.95506174E-01 -1.69733720E+00 -1.69190774E+00
 -1.19525981E+00  0.00000000E+00  0.00000000E+00  0.00000000E+00 -7.59247052E-02
 -4.06314793E-01  0.00000000E+00  0.00000000E+00 -3.51832673E-01 -1.73690837E+00
  0.00000000E+00  0.00000000E+00 -1.50890802E+00  2.57206920E+00  0.00000000E+00
  0.00000000E+00  1.50324815E+00  4.30210130E-02 -3.82692040E-02 -1.56023844E-01
  0.00000000E+00  0.00000000E+00  0.00000000E+00  8.84857930E-02  8.53074011E-02
  8.84857930E-02  8.53074011E-02  3.63731096E-02  2.25381626E-01  0.00000000E+00
  0.00000000E+00 -1.00434506E-01 -2.71823498E+00  0.00000000E+00  0.00000000E+00
  2.53154298E+00 -7.60789646E+00  0.00000000E+00  0.00000000E+00  2.23485756E+00
  2.32253625E-01  2.24317824E-01 -4.05426059E-01  0.00000000E+00  0.00000000E+00
  0.00000000E+00 -1.77316790E-01 -3.56765527E-01  0.00000000E+00  0.00000000E+00
  4.17854566E-01  8.46381160E+00  0.00000000E+00  0.00000000E+00  3.34643124E+00
  3.11303041E+00  0.00000000E+00  0.00000000E+00  8.95377450E-01 -6.88921947E-01
 -5.67506197E-01  1.37476778E-01  0.00000000E+00  0.00000000E+00  0.00000000E+00
 -1.31777290E-01 -1.30859378E-01 -1.31777290E-01 -1.30859378E-01  0.00000000E+00
  0.00000000E+00  0.00000000E+00  0.00000000E+00  0.00000000E+00  0.00000000E+00
  0.00000000E+00  0.00000000E+00  0.00000000E+00  0.00000000E+00  0.00000000E+00
  0.00000000E+00  0.00000000E+00  0.00000000E+00  0.00000000E+00  0.00000000E+00
  6.63971522E-01  0.00000000E+00  0.00000000E+00  0.00000000E+00  0.00000000E+00
  0.00000000E+00  0.00000000E+00  0.00000000E+00  0.00000000E+00  0.00000000E+00
  0.00000000E+00  0.00000000E+00  0.00000000E+00  0.00000000E+00  0.00000000E+00
  0.00000000E+00  0.00000000E+00  0.00000000E+00  0.00000000E+00  6.63971522E-01
  0.00000000E+00  0.00000000E+00  0.00000000E+00  0.00000000E+00  0.00000000E+00
  0.00000000E+00  0.00000000E+00  0.00000000E+00  0.00000000E+00  0.00000000E+00
  0.00000000E+00  0.00000000E+00  0.00000000E+00  0.00000000E+00  0.00000000E+00
  0.00000000E+00  0.00000000E+00  0.00000000E+00  0.00000000E+00  0.00000000E+00
  0.00000000E+00  0.00000000E+00  7.59913336E-01  0.00000000E+00  0.00000000E+00
  0.00000000E+00  0.00000000E+00  0.00000000E+00  0.00000000E+00  0.00000000E+00
  0.00000000E+00  0.00000000E+00  0.00000000E+00  0.00000000E+00  0.00000000E+00
  0.00000000E+00  0.00000000E+00  0.00000000E+00  0.00000000E+00  0.00000000E+00
  0.00000000E+00 -7.59913336E-01  0.00000000E+00  0.00000000E+00  0.00000000E+00
  0.00000000E+00  0.00000000E+00  0.00000000E+00  0.00000000E+00  0.00000000E+00
  1.23041236E-01  0.00000000E+00  0.00000000E+00  0.00000000E+00  2.54298900E-01
  0.00000000E+00  0.00000000E+00  0.00000000E+00  2.75751378E-01  0.00000000E+00
  0.00000000E+00  0.00000000E+00  0.00000000E+00  0.00000000E+00  0.00000000E+00
 -5.80800506E-02  0.00000000E+00  0.00000000E+00  0.00000000E+00  1.68354345E-01
  0.00000000E+00  0.00000000E+00  0.00000000E+00  2.73981512E-01  0.00000000E+00
  0.00000000E+00  0.00000000E+00  2.31183159E-01  0.00000000E+00  0.00000000E+00
  0.00000000E+00  0.00000000E+00  0.00000000E+00  0.00000000E+00  6.20254011E-02
  0.00000000E+00  0.00000000E+00  0.00000000E+00  0.00000000E+00  0.00000000E+00
  0.00000000E+00  0.00000000E+00  1.98814109E-01  0.00000000E+00  0.00000000E+00
  0.00000000E+00  7.08129407E-02  0.00000000E+00  0.00000000E+00  0.00000000E+00
 -1.80636358E-01  0.00000000E+00  0.00000000E+00  0.00000000E+00  0.00000000E+00
  0.00000000E+00  0.00000000E+00 -4.97676327E-01  0.00000000E+00  0.00000000E+00
  0.00000000E+00  1.20497857E-01  0.00000000E+00  0.00000000E+00  0.00000000E+00
 -7.03409820E-02  0.00000000E+00  0.00000000E+00  0.00000000E+00 -2.40115719E-01
  0.00000000E+00  0.00000000E+00  0.00000000E+00  0.00000000E+00  0.00000000E+00
  0.00000000E+00  5.30946554E-01  0.00000000E+00  0.00000000E+00  0.00000000E+00
  0.00000000E+00  0.00000000E+00  0.00000000E+00  0.00000000E+00  5.48967360E-01
  0.00000000E+00  0.00000000E+00  0.00000000E+00  3.31041933E-01  0.00000000E+00
  0.00000000E+00  0.00000000E+00  5.37400837E-02  0.00000000E+00  0.00000000E+00
  0.00000000E+00  0.00000000E+00  0.00000000E+00  0.00000000E+00  3.95420791E-01
  0.00000000E+00  0.00000000E+00  0.00000000E+00 -4.02697893E-01  0.00000000E+00
  0.00000000E+00  0.00000000E+00 -2.26734050E-01  0.00000000E+00  0.00000000E+00
  0.00000000E+00 -1.00702211E-01  0.00000000E+00  0.00000000E+00  0.00000000E+00
  0.00000000E+00  0.00000000E+00  0.00000000E+00  1.55024690E-01  0.00000000E+00
  0.00000000E+00  0.00000000E+00  0.00000000E+00  0.00000000E+00  0.00000000E+00
  0.00000000E+00  3.84283479E-01  0.00000000E+00  0.00000000E+00  0.00000000E+00
  1.22627191E-01  0.00000000E+00  0.00000000E+00  0.00000000E+00 -3.01053937E-01
  0.00000000E+00  0.00000000E+00  0.00000000E+00  0.00000000E+00  0.00000000E+00
  0.00000000E+00  1.62711863E-01  0.00000000E+00  0.00000000E+00  0.00000000E+00
  6.08014586E-01  0.00000000E+00  0.00000000E+00  0.00000000E+00  1.44665623E-01
  0.00000000E+00  0.00000000E+00  0.00000000E+00 -4.38968220E-01  0.00000000E+00
  0.00000000E+00  0.00000000E+00  0.00000000E+00  0.00000000E+00  0.00000000E+00
 -4.27500123E-01  0.00000000E+00  0.00000000E+00  0.00000000E+00  0.00000000E+00
  0.00000000E+00  0.00000000E+00  0.00000000E+00  7.80577489E-01  0.00000000E+00
  0.00000000E+00  0.00000000E+00 -4.96017133E-01  0.00000000E+00  0.00000000E+00
  0.00000000E+00 -9.34439606E-02  0.00000000E+00  0.00000000E+00  0.00000000E+00
  0.00000000E+00  0.00000000E+00  0.00000000E+00 -6.38242783E-01  0.00000000E+00
  0.00000000E+00  0.00000000E+00 -3.10010948E-01  0.00000000E+00  0.00000000E+00
  0.00000000E+00 -2.42744156E-02  0.00000000E+00  0.00000000E+00  0.00000000E+00
  4.88262771E-01  0.00000000E+00  0.00000000E+00  0.00000000E+00  0.00000000E+00
  0.00000000E+00  0.00000000E+00 -5.68221697E-01  0.00000000E+00  0.00000000E+00
  0.00000000E+00  0.00000000E+00  0.00000000E+00  0.00000000E+00  0.00000000E+00
 -3.40881362E-01  0.00000000E+00  0.00000000E+00  0.00000000E+00  7.70515554E-01
  0.00000000E+00  0.00000000E+00  0.00000000E+00  3.60715442E-01  0.00000000E+00
  0.00000000E+00  0.00000000E+00  0.00000000E+00  0.00000000E+00  0.00000000E+00
 -7.10689985E-01  0.00000000E+00  0.00000000E+00  0.00000000E+00 -6.10333936E-01
  0.00000000E+00  0.00000000E+00  0.00000000E+00  7.54458255E-02  0.00000000E+00
  0.00000000E+00  0.00000000E+00 -7.31809523E-01  0.00000000E+00  0.00000000E+00
  0.00000000E+00  0.00000000E+00  0.00000000E+00  0.00000000E+00 -7.01000520E-01
  0.00000000E+00  0.00000000E+00  0.00000000E+00  0.00000000E+00  0.00000000E+00
  0.00000000E+00  0.00000000E+00  3.28868161E-02  0.00000000E+00  0.00000000E+00
  0.00000000E+00 -2.45431148E-01  0.00000000E+00  0.00000000E+00  0.00000000E+00
 -7.34262996E-01  0.00000000E+00  0.00000000E+00  0.00000000E+00  0.00000000E+00
  0.00000000E+00  0.00000000E+00  2.25492107E-01  0.00000000E+00  0.00000000E+00
  0.00000000E+00 -7.99088925E-01  0.00000000E+00  0.00000000E+00  0.00000000E+00
  1.65774851E+00  0.00000000E+00  0.00000000E+00  0.00000000E+00 -2.68012347E-01
  0.00000000E+00  0.00000000E+00  0.00000000E+00  0.00000000E+00  0.00000000E+00
  0.00000000E+00  2.61741999E-01  0.00000000E+00  0.00000000E+00  0.00000000E+00
  0.00000000E+00  0.00000000E+00  0.00000000E+00  0.00000000E+00  4.90294693E-01
  0.00000000E+00  0.00000000E+00  0.00000000E+00 -1.59310815E+00  0.00000000E+00
  0.00000000E+00  0.00000000E+00  1.98964916E+00  0.00000000E+00  0.00000000E+00
  0.00000000E+00  0.00000000E+00  0.00000000E+00  0.00000000E+00  1.85673333E-01
  0.00000000E+00  0.00000000E+00  0.00000000E+00  5.74215728E-02  0.00000000E+00
  0.00000000E+00  0.00000000E+00  3.68065603E-01  0.00000000E+00  0.00000000E+00
  0.00000000E+00 -1.39011242E+00  0.00000000E+00  0.00000000E+00  0.00000000E+00
  0.00000000E+00  0.00000000E+00  0.00000000E+00  2.86896012E-01  0.00000000E+00
  0.00000000E+00  0.00000000E+00  0.00000000E+00  0.00000000E+00  0.00000000E+00
  0.00000000E+00  0.00000000E+00  7.57328778E-02  0.00000000E+00  0.00000000E+00
  0.00000000E+00  1.80447360E-01  0.00000000E+00  0.00000000E+00  0.00000000E+00
  2.15853601E-01  0.00000000E+00  0.00000000E+00  0.00000000E+00  0.00000000E+00
  0.00000000E+00  0.00000000E+00 -4.06551490E-02  0.00000000E+00  0.00000000E+00
  0.00000000E+00  1.55528677E-01  0.00000000E+00  0.00000000E+00  0.00000000E+00
  2.52708549E-01  0.00000000E+00  0.00000000E+00  0.00000000E+00  1.97390664E-01
  0.00000000E+00  0.00000000E+00  0.00000000E+00  0.00000000E+00  0.00000000E+00
  0.00000000E+00  6.83056382E-03  1.11145293E-01  1.24695210E-01 -1.11145293E-01
 -1.24695210E-01  0.00000000E+00  0.00000000E+00  0.00000000E+00  2.95132426E-01
  0.00000000E+00  0.00000000E+00  0.00000000E+00  2.84554029E-01  0.00000000E+00
  0.00000000E+00  0.00000000E+00  1.05448499E-01  0.00000000E+00  0.00000000E+00
  0.00000000E+00  0.00000000E+00  0.00000000E+00  0.00000000E+00 -1.82402570E-01
  0.00000000E+00  0.00000000E+00  0.00000000E+00 -6.39114294E-02  0.00000000E+00
  0.00000000E+00  0.00000000E+00 -6.33921018E-02  0.00000000E+00  0.00000000E+00
  0.00000000E+00 -1.35793129E-02  0.00000000E+00  0.00000000E+00  0.00000000E+00
  0.00000000E+00  0.00000000E+00  0.00000000E+00  4.61124401E-01 -2.39849152E-01
 -1.00519533E-01  2.39849152E-01  1.00519533E-01  0.00000000E+00  0.00000000E+00
  0.00000000E+00  1.45036893E-01  0.00000000E+00  0.00000000E+00  0.00000000E+00
  1.86358082E-01  0.00000000E+00  0.00000000E+00  0.00000000E+00  2.57489653E-01
  0.00000000E+00  0.00000000E+00  0.00000000E+00  0.00000000E+00  0.00000000E+00
  0.00000000E+00  5.86251764E-01  0.00000000E+00  0.00000000E+00  0.00000000E+00
 -3.77078680E-01  0.00000000E+00  0.00000000E+00  0.00000000E+00 -9.17578963E-02
  0.00000000E+00  0.00000000E+00  0.00000000E+00  2.02360348E-01  0.00000000E+00
  0.00000000E+00  0.00000000E+00  0.00000000E+00  0.00000000E+00  0.00000000E+00
 -2.23894525E-01 -1.11381386E-01 -3.27956944E-02  1.11381386E-01  3.27956944E-02
  0.00000000E+00  0.00000000E+00  0.00000000E+00  6.04178107E-01  0.00000000E+00
  0.00000000E+00  0.00000000E+00  2.38315696E-01  0.00000000E+00  0.00000000E+00
  0.00000000E+00 -2.70140122E-01  0.00000000E+00  0.00000000E+00  0.00000000E+00
  0.00000000E+00  0.00000000E+00  0.00000000E+00  2.21644704E-01  0.00000000E+00
  0.00000000E+00  0.00000000E+00  2.98850831E-01  0.00000000E+00  0.00000000E+00
  0.00000000E+00  8.57586807E-03  0.00000000E+00  0.00000000E+00  0.00000000E+00
 -4.56306739E-01  0.00000000E+00  0.00000000E+00  0.00000000E+00  0.00000000E+00
  0.00000000E+00  0.00000000E+00 -2.08243446E-01  1.67986499E-01 -6.38903649E-02
 -1.67986499E-01  6.38903649E-02  0.00000000E+00  0.00000000E+00  0.00000000E+00
 -7.01219833E-01  0.00000000E+00  0.00000000E+00  0.00000000E+00  4.29737135E-01
  0.00000000E+00  0.00000000E+00  0.00000000E+00  2.31180447E-01  0.00000000E+00
  0.00000000E+00  0.00000000E+00  0.00000000E+00  0.00000000E+00  0.00000000E+00
  3.95058691E-01  0.00000000E+00  0.00000000E+00  0.00000000E+00  7.21815661E-01
  0.00000000E+00  0.00000000E+00  0.00000000E+00  3.41918732E-03  0.00000000E+00
  0.00000000E+00  0.00000000E+00 -3.04743259E-01  0.00000000E+00  0.00000000E+00
  0.00000000E+00  0.00000000E+00  0.00000000E+00  0.00000000E+00  2.30850383E-02
 -2.46606303E-01 -2.26923473E-01  2.46606303E-01  2.26923473E-01  0.00000000E+00
  0.00000000E+00  0.00000000E+00 -3.11326781E-01  0.00000000E+00  0.00000000E+00
  0.00000000E+00  7.43044065E-02  0.00000000E+00  0.00000000E+00  0.00000000E+00
 -3.45044499E-01  0.00000000E+00  0.00000000E+00  0.00000000E+00  0.00000000E+00
  0.00000000E+00  0.00000000E+00  6.60344774E-01  0.00000000E+00  0.00000000E+00
  0.00000000E+00 -3.76574426E-01  0.00000000E+00  0.00000000E+00  0.00000000E+00
  3.56120254E-01  0.00000000E+00  0.00000000E+00  0.00000000E+00 -3.58979100E-01
  0.00000000E+00  0.00000000E+00  0.00000000E+00  0.00000000E+00  0.00000000E+00
  0.00000000E+00  9.45930924E-01  3.27878335E-01  2.87028890E-01 -3.27878335E-01
 -2.87028890E-01  0.00000000E+00  0.00000000E+00  0.00000000E+00  3.89677292E-01
  0.00000000E+00  0.00000000E+00  0.00000000E+00 -7.33997633E-01  0.00000000E+00
  0.00000000E+00  0.00000000E+00 -3.46211186E-01  0.00000000E+00  0.00000000E+00
  0.00000000E+00  0.00000000E+00  0.00000000E+00  0.00000000E+00  5.88445323E-01
  0.00000000E+00  0.00000000E+00  0.00000000E+00  7.89081661E-01  0.00000000E+00
  0.00000000E+00  0.00000000E+00 -1.45801895E-01  0.00000000E+00  0.00000000E+00
  0.00000000E+00  7.06374030E-01  0.00000000E+00  0.00000000E+00  0.00000000E+00
  0.00000000E+00  0.00000000E+00  0.00000000E+00  3.93618021E-01 -2.85126791E-01
  1.48249899E-01  2.85126791E-01 -1.48249899E-01  0.00000000E+00  0.00000000E+00
  0.00000000E+00  2.85421613E-02  0.00000000E+00  0.00000000E+00  0.00000000E+00
 -1.69041572E-01  0.00000000E+00  0.00000000E+00  0.00000000E+00  6.96489134E-01
  0.00000000E+00  0.00000000E+00  0.00000000E+00  0.00000000E+00  0.00000000E+00
  0.00000000E+00  1.00684818E-01  0.00000000E+00  0.00000000E+00  0.00000000E+00
  2.17003019E-01  0.00000000E+00  0.00000000E+00  0.00000000E+00 -1.06728481E+00
  0.00000000E+00  0.00000000E+00  0.00000000E+00  3.44499319E-01  0.00000000E+00
  0.00000000E+00  0.00000000E+00  0.00000000E+00  0.00000000E+00  0.00000000E+00
  5.66705778E-01  9.60390767E-01 -6.70838512E-01 -9.60390767E-01  6.70838512E-01
  0.00000000E+00  0.00000000E+00  0.00000000E+00  5.06529512E-01  0.00000000E+00
  0.00000000E+00  0.00000000E+00 -1.64410651E+00  0.00000000E+00  0.00000000E+00
  0.00000000E+00  1.85230761E+00  0.00000000E+00  0.00000000E+00  0.00000000E+00
  0.00000000E+00  0.00000000E+00  0.00000000E+00  1.91024981E-01  0.00000000E+00
  0.00000000E+00  0.00000000E+00  2.92511774E-02  0.00000000E+00  0.00000000E+00
  0.00000000E+00  7.25188427E-01  0.00000000E+00  0.00000000E+00  0.00000000E+00
 -1.41096362E+00  0.00000000E+00  0.00000000E+00  0.00000000E+00  0.00000000E+00
  0.00000000E+00  0.00000000E+00  1.82844646E-01 -2.21370506E-01  1.96984525E-02
  2.21370506E-01 -1.96984525E-02  0.00000000E+00  0.00000000E+00  0.00000000E+00
 -9.80478150E-02  0.00000000E+00  0.00000000E+00  0.00000000E+00  6.86788042E-01
  0.00000000E+00  0.00000000E+00  0.00000000E+00  1.09875921E+00  0.00000000E+00
  0.00000000E+00  0.00000000E+00  0.00000000E+00  0.00000000E+00  0.00000000E+00
 -2.42515190E-01  0.00000000E+00  0.00000000E+00  0.00000000E+00  5.40310408E-01
  0.00000000E+00  0.00000000E+00  0.00000000E+00 -3.61501717E+00  0.00000000E+00
  0.00000000E+00  0.00000000E+00 -1.15254424E+00  0.00000000E+00  0.00000000E+00
  0.00000000E+00  0.00000000E+00  0.00000000E+00  0.00000000E+00 -4.40583336E-02
 -1.42148327E-01  2.90860555E+00  1.42148327E-01 -2.90860555E+00
Total SCF Density                          R   N=         903
  2.08119518E+00 -1.89286633E-01  5.19763132E-01 -7.97318516E-33  1.82583075E-32
  4.93548686E-01 -7.44163949E-33  1.70410870E-32  3.22977821E-17  8.43113376E-01
 -4.31241086E-02  9.87526589E-02  2.28818574E-31  2.51174474E-31  6.12436211E-01
 -2.28877351E-01  5.42418824E-01  5.58613532E-32  5.21372630E-32  3.02134093E-01
  6.34871135E-01 -4.96398972E-33  1.23353690E-32  3.38333349E-01  2.22467874E-17
  1.31586024E-31  2.94521904E-32  2.31931435E-01 -4.63305707E-33  1.15130111E-32
  2.22467874E-17  5.82362590E-01  1.49355072E-31  2.74887110E-32  1.54613459E-17
  4.07945149E-01 -2.68484461E-02  6.67176019E-02  1.31586024E-31  1.49355072E-31
  2.83146194E-01  1.59296370E-01  7.87994108E-32  9.32468657E-32  1.32418029E-01
 -7.96652035E-03  1.16483564E-02  1.40402626E-32  1.31042451E-32  7.59387618E-02
  3.75832290E-02  6.40950067E-33  5.98220063E-33  3.46666981E-02  9.78987873E-03
 -6.72898544E-35  9.09335172E-35  2.35268777E-02  2.58333433E-18  7.54612646E-33
  6.34123353E-34  1.61279475E-02  1.89747216E-18  4.79454984E-33  1.88013484E-34
  1.12149822E-03 -6.28038641E-35  8.48712828E-35  2.58333433E-18  8.33858816E-02
  1.62898863E-32  5.91848463E-34  1.89747216E-18  6.24000158E-02  1.17176171E-32
  1.75479252E-34  3.24325379E-19  1.23008919E-02 -3.63946770E-04  4.91826892E-04
  7.54612646E-33  1.62898863E-32  1.10135890E-02  3.42974656E-03  4.79454984E-33
  1.17176171E-32  5.50327279E-03  1.01689773E-03  3.66972118E-34  2.22005277E-33
  5.64256604E-04 -9.76174197E-03  2.05400206E-03 -1.17925848E-32  1.79430078E-33
  1.03979267E-02  5.51750436E-03 -8.49809567E-33  8.43481472E-34  4.88795335E-03
  1.25985986E-03 -6.10352861E-34  4.05320761E-35  2.34882334E-04  2.23583509E-04
 -9.80495218E-03  3.70366769E-03  2.62878194E-33 -9.01861733E-33  1.42181419E-02
  8.56687035E-03  1.21989319E-33 -6.40749600E-33  6.59796620E-03  1.79512461E-03
  4.22379933E-35 -7.76093847E-34  2.28450208E-04  2.75751503E-04  3.69810789E-04
 -1.00340275E-02  4.73620571E-03 -2.38211990E-32 -1.74910294E-32 -3.48792672E-02
 -7.04481729E-03 -1.47977089E-32 -1.02422105E-32 -1.56241054E-02 -4.36970471E-03
 -9.39372655E-34 -9.19350440E-34 -6.01718048E-04 -5.37991311E-04 -7.48249690E-04
  2.24560437E-03 -5.45931185E-19  1.60644994E-19 -7.39049526E-33 -7.09655062E-33
  6.86814001E-19  3.92968751E-19 -5.06627023E-33 -4.66791588E-33  3.20469141E-19
  8.52372545E-20 -3.52296101E-34 -5.04469679E-34  1.29274614E-20  1.39319679E-20
  1.80118616E-20 -3.58874661E-20  1.62444028E-36 -4.78198039E-33  1.56658997E-33
 -4.28277291E-02 -1.96228875E-18 -1.46645562E-32 -1.19509338E-35 -2.93589051E-02
 -1.31944530E-18 -8.88945557E-33 -5.92200955E-34 -2.04154681E-03 -1.15258608E-19
 -5.43060417E-34  1.13573002E-33 -8.51756171E-35  1.84142403E-33  6.41310854E-34
  3.71637983E-03 -3.95309450E-33  1.68172041E-33 -1.96228875E-18 -3.83827057E-02
 -1.07403616E-32  3.03282713E-34 -1.31944530E-18 -2.52470885E-02 -6.15526062E-33
 -5.13008158E-34 -1.15258608E-19 -2.72849618E-03 -5.45215330E-34 -5.22536318E-35
  5.30903542E-34  9.04672224E-34  3.75057592E-34  1.38814870E-19  2.02855245E-03
  1.31392801E-02 -2.74503167E-02  1.86260398E-32  1.73843038E-32  1.00741592E-01
  1.42091353E-02  7.32831340E-33  6.83975917E-33  3.96362278E-02  2.96946159E-02
 -1.51554633E-33 -1.41450991E-33 -8.19704837E-03  1.59383728E-03  2.65037217E-03
 -6.90915384E-03  1.18417872E-19 -1.04403725E-33 -8.48600415E-34  2.06242942E+00
 -1.74398642E-02  3.48483220E-02 -4.14512279E-32 -3.86878127E-32 -2.24194876E-01
 -6.04654527E-02 -1.63736193E-32 -1.52820447E-32 -8.85590542E-02 -3.56136968E-02
  8.52149859E-34  7.95339869E-34  4.60897400E-03 -2.40282717E-03 -5.57726466E-03
  1.56418926E-02 -2.22652889E-19  2.68963550E-33  2.00546731E-33 -1.04719747E-01
  3.25829339E-01 -9.95785364E-33  2.14451161E-32  3.27552603E-01  9.47922267E-18
  5.43232449E-33 -2.65348884E-34  2.24541109E-01  5.32548497E-18  1.94055130E-32
 -7.79862180E-33  1.56140422E-02 -4.64595003E-19  1.10179886E-33 -1.04464346E-32
 -1.46961340E-33 -6.96076608E-33 -4.90483720E-33 -2.84234049E-02 -1.02049702E-18
  1.00582916E-33 -1.74656828E-37  2.17386269E-01 -9.29399673E-33  2.00154417E-32
  9.47922267E-18  6.47504133E-02 -5.53528004E-32 -2.47658958E-34  5.32548497E-18
 -4.14288731E-03 -3.16833407E-32 -7.27871368E-33 -4.64595003E-19 -3.48415704E-02
 -8.39695218E-33 -1.25457837E-33 -5.49942126E-33  1.36377405E-34 -2.55340297E-33
 -1.02049702E-18 -1.38104440E-02  9.38773879E-34 -1.63013039E-37  1.55128914E-17
  4.24623555E-01 -5.38584710E-02  1.15988968E-01  5.43232449E-33 -5.53528004E-32
 -3.85518462E-01 -1.43517727E-03  1.94055130E-32 -3.16833407E-32 -1.79461254E-01
 -4.21799578E-02  1.10179886E-33 -8.39695218E-33 -1.38185506E-02 -7.27024925E-03
 -7.94861356E-03  2.47106942E-02 -4.24622153E-19 -3.34707728E-33  9.56818680E-34
  5.44017038E-03 -9.44656353E-07  1.29475668E-31  1.46602072E-31  4.24931667E-01
  2.75560323E-02 -6.42568064E-02 -2.17168379E-32 -2.02690487E-32 -1.17458614E-01
 -1.21335554E-01 -8.21299573E-33 -7.66546269E-33 -4.44211583E-02 -2.25796035E-02
  1.26126141E-33  1.17717732E-33  6.82171216E-03 -7.81269152E-04 -3.45839304E-03
  7.07318061E-03 -1.18290999E-19  1.29879262E-33  7.20278820E-34 -1.54716374E-01
  2.62114001E-01 -1.92570802E-32 -1.79732749E-32 -1.04154664E-01  2.47341822E-01
  1.74996515E-33 -4.18695788E-33  1.75879970E-01  4.44447929E-18  2.35880923E-32
 -8.94003443E-33  1.20567759E-01  2.58317609E-18  1.93801070E-32 -1.74045557E-33
  8.38398854E-03 -1.70279474E-19  1.16062798E-33 -5.25866382E-33 -3.79378767E-34
 -5.29111479E-33 -2.63366131E-33 -1.52619993E-02 -4.80909536E-19  3.20029495E-33
 -6.45483295E-33  1.16725955E-01  6.82497994E-18  4.70336039E-32 -8.86793957E-33
  6.26762153E-02  1.63330081E-33 -3.90782735E-33  4.44447929E-18  8.05733113E-03
 -1.50379279E-32 -8.34403213E-33  2.58317609E-18 -1.36615490E-02 -1.06231085E-32
 -1.62442519E-33 -1.70279474E-19 -1.54311013E-02 -3.41216331E-33 -3.46451024E-34
 -1.74114296E-33 -5.47358659E-34 -8.58018452E-34 -4.80909536E-19 -4.64071512E-03
  2.98694195E-33 -6.02451075E-33  6.82497994E-18  1.65729718E-01  4.69829174E-32
 -8.27674360E-33  3.08599948E-18  6.50396266E-02  9.46493599E-03 -2.26457586E-02
  2.35880923E-32 -1.50379279E-32 -9.52017350E-02 -4.83534507E-02  1.93801070E-32
 -1.06231085E-32 -4.78990903E-02 -9.41350205E-03  1.16062798E-33 -3.41216331E-33
 -4.34229692E-03 -2.00767474E-03 -2.05192414E-03  4.86602507E-03 -1.13267045E-19
 -3.07831964E-33 -2.40082392E-34  1.73092515E-02 -3.49118842E-02  4.70336039E-32
  4.69829174E-32  1.06535075E-01 -4.79635154E-02  2.11896550E-32  1.73006852E-32
  3.52173975E-02 -5.62270595E-03  1.52066661E-02  7.13977294E-34  6.66378808E-34
  3.86164798E-03  1.57607612E-02  4.93059544E-34  4.60188907E-34  2.66678283E-03
  2.53541214E-04  4.54726906E-35  4.24411779E-35  2.45945530E-04  1.05107130E-04
  1.16802048E-04  1.10412527E-04  6.19149764E-21  5.19955355E-35  4.52745403E-35
 -7.03363192E-03  5.78859261E-03 -1.91591845E-34 -1.78819056E-34 -1.03625181E-03
  3.11238116E-03 -4.36413458E-34 -4.07319228E-34 -2.36040441E-03  5.72402752E-04
 -6.89214712E-34  1.81959652E-33  2.15602639E-02  3.48708126E-19  4.84139308E-33
  1.71283238E-33  1.47798110E-02  2.01114918E-19  3.44330729E-33 -2.98691439E-35
  1.02775208E-03 -2.34566540E-20  2.33402534E-34 -6.01111061E-34  4.47578727E-37
 -7.08775270E-34 -3.22847638E-34 -1.87089373E-03 -4.55958854E-20 -4.22371619E-34
  3.45398040E-34  1.43088630E-02  6.50509082E-19  4.12717809E-33 -1.10215483E-34
  7.68317018E-03  3.09116102E-19  1.80088064E-33  5.30684994E-35  9.41842194E-04
 -6.43267064E-34  1.69829008E-33  3.48708126E-19 -7.12877992E-03 -1.42417939E-33
  1.59864356E-33  2.01114918E-19 -6.45655578E-03 -1.13098542E-33 -2.78778677E-35
 -2.34566540E-20 -1.99851904E-03 -3.51674986E-34 -1.84847687E-36 -4.39971318E-36
  4.19644111E-35 -2.98002640E-36 -4.55958854E-20 -1.61178976E-05 -3.94213511E-34
  3.22371504E-34  6.50509082E-19  1.26128250E-02  2.90090960E-33 -1.02867784E-34
  3.09116102E-19  5.10977532E-03  8.83192793E-34  4.95305994E-35  3.41864924E-20
  4.72985219E-04 -3.72771602E-03  9.84154718E-03  4.84139308E-33 -1.42417939E-33
 -1.12430288E-03  9.26409812E-03  3.44330729E-33 -1.13098542E-33 -9.74755105E-05
 -1.61551523E-04  2.33402534E-34 -3.51674986E-34 -3.94284252E-05 -1.07118757E-05
  2.42079335E-06  2.71099696E-04 -2.31329850E-22 -3.83169556E-34  5.17200509E-35
 -2.28445712E-03  1.86813454E-03  4.12717809E-33  2.90090960E-33  4.19787124E-03
 -5.96116152E-04  1.80088064E-33  8.83192793E-34  8.30410212E-06  2.87028545E-04
  2.57958336E-34  1.16512951E-34  2.02204321E-04  3.35732635E-03 -7.33811420E-03
  1.51966454E-32  3.01805647E-33  1.74895593E-02 -4.69817482E-04  9.51773767E-33
  1.22915627E-33  7.12292881E-03  2.50718537E-03  5.62114572E-34 -7.60482333E-36
 -4.40697548E-05  2.26226684E-04  4.00346476E-04 -1.27062393E-03  1.74820450E-20
 -1.24818236E-33 -1.73410581E-34  4.17462473E-03 -1.82614272E-02  6.60112264E-33
 -1.24912652E-33 -7.23865595E-03 -1.24051543E-02  4.35141509E-33  8.24140834E-35
  4.77587485E-04 -4.07523453E-04  4.79182040E-34 -4.05181052E-35 -2.34801373E-04
  1.17228596E-03  6.94104962E-03 -1.57573663E-02  4.86636224E-33  2.37450678E-32
  2.63204139E-02 -8.36746060E-03  2.29437216E-33  1.67978025E-32  1.24094389E-02
  2.54033824E-03  2.46598004E-34  3.30447017E-33  1.33376046E-03  5.39865312E-04
  4.94338132E-04 -1.79583261E-03  2.88553553E-20 -2.37403508E-34 -8.24080387E-34
 -7.77358637E-03  8.13133202E-03 -7.11297250E-33 -1.71197620E-32 -3.84715258E-02
  1.69518849E-02 -1.83337201E-33 -6.23160913E-33 -9.91605390E-03  6.13212865E-05
 -8.08803900E-35 -6.12791421E-34 -4.37453120E-04  2.46952995E-04  3.77529485E-03
 -1.18444360E-02  2.26831280E-02  9.21310329E-33  1.36590857E-32 -3.21275919E-02
  1.12924779E-02  7.88174070E-33  1.23175301E-32 -1.35536240E-02 -4.11904464E-03
  6.22545161E-34  2.98117706E-33 -5.39714719E-04 -4.92723932E-04 -6.58327449E-04
  2.43519942E-03 -3.21155346E-20 -9.28264767E-34 -2.10688282E-34 -1.14424166E-02
  1.82779110E-02  1.52734400E-32 -5.61199781E-33  2.82156707E-02  6.25509421E-03
  6.10468518E-33 -3.86270419E-33  3.81168901E-03  6.68418061E-04  7.75833798E-34
 -4.31014102E-34  6.15941752E-04 -1.59242542E-03 -2.25040575E-03  3.26731836E-03
  2.87335436E-19 -6.44388006E-19  6.44639247E-33  1.18788558E-32  1.22234397E-18
 -2.46569280E-19  4.41907681E-33  9.06628913E-33  5.44973442E-19  1.40831176E-19
  3.07291847E-34  1.90173737E-33  3.59837165E-20  2.13747661E-20  2.49626342E-20
 -8.55573373E-20 -6.68224682E-37 -5.59386254E-34 -3.49345955E-34 -1.00414785E-19
 -2.82640226E-19  4.27826614E-33 -6.48342972E-33 -1.27536177E-18  1.26858529E-19
  2.29722283E-33 -2.79631061E-33 -2.63343062E-19 -9.65940169E-21  2.81605293E-34
 -3.32370069E-34 -1.87566018E-20  3.95982479E-20  1.12224912E-19 -1.07219000E-19
  4.27315262E-35 -1.62079147E-33  2.85826662E-33  3.73566779E-02  2.45508682E-18
  6.61927677E-33  2.28380142E-33  2.56084360E-02  1.80364210E-18  5.02993460E-33
 -2.01381747E-34  1.78074831E-03  2.91564584E-19  2.89896828E-34 -1.08210714E-33
 -3.22846299E-35 -1.13862672E-33 -5.59386254E-34 -3.24162889E-03 -1.23983227E-19
 -1.31394746E-33 -1.03612456E-33  2.47924418E-02 -2.48253500E-19  9.87253294E-33
 -2.01922653E-33  1.33123470E-02 -4.37809041E-20  4.06057428E-33  3.24980738E-35
  1.63189540E-03 -4.00563551E-21  4.50181429E-34  8.82523216E-34 -4.13661311E-34
  1.41385851E-33  4.87927156E-34  2.82752527E-03 -9.77043688E-34  1.38002008E-33
  2.45508682E-18  6.42484852E-02  9.92979985E-33  5.82835912E-34  1.80364210E-18
  4.90363172E-02  8.23388073E-33 -3.14571398E-34  2.91564584E-19  1.02858177E-02
  1.93317561E-33  9.39334237E-36 -5.97422288E-34 -4.37346381E-34 -3.49345955E-34
 -1.23983227E-19 -1.88948740E-03 -3.82896081E-33  5.26227836E-33 -2.48253500E-19
 -3.50665539E-02 -8.09477212E-33  4.62419857E-33 -4.37809041E-20 -1.51242446E-02
 -3.82623931E-33  1.45407105E-34 -4.00563551E-21 -1.79767090E-03 -2.74646605E-34
 -2.68097439E-34  2.90681512E-33  2.80559625E-33  1.61016844E-33  2.78752988E-19
  8.70882553E-03  7.21710230E-03 -1.72271976E-02 -1.97549582E-18 -8.17570170E-02
  3.44627425E-02 -1.67180303E-02 -2.01999513E-18 -8.35986462E-02  2.20479744E-02
 -4.32948507E-04 -7.48606675E-19 -3.09815126E-02  5.91965231E-03  1.32157418E-03
  3.76385468E-04 -1.63776839E-03  4.73748460E-20 -5.57665734E-20 -2.30793133E-03
 -6.02243006E-02  1.19781249E-01  5.47705057E-18  2.26670850E-01 -1.26890323E-01
  1.27554101E-01  2.19575020E-18  9.08723698E-02 -4.51332671E-02  2.62400411E-03
  1.93222370E-19  7.99661759E-03 -4.72084044E-04 -4.56717414E-03  1.44671266E-02
 -1.52796963E-03  2.76219004E-19 -6.87070070E-19 -2.84347852E-02  2.19404061E-01
  6.43597055E-03 -1.46918226E-02 -4.39251036E-18 -1.81786537E-01  4.43849329E-02
 -4.15079458E-03 -3.59315444E-18 -1.48704738E-01  2.24740399E-02  3.62580193E-03
 -9.06340343E-19 -3.75094101E-02  2.97179815E-03  1.03866700E-03  8.19037965E-04
 -2.65953610E-03  5.18319070E-20  7.56834792E-20  3.13220379E-03 -1.57488814E-02
  3.57205278E-02  4.46409312E-18  1.84749030E-01 -7.50571324E-02  4.69847895E-02
  1.84713894E-18  7.64448946E-02 -2.28463362E-02  8.85670264E-04  1.87713689E-19
  7.76863767E-03 -4.99744396E-04 -7.34600662E-04  7.66952773E-03 -2.91761249E-03
  1.93491702E-19 -7.92395174E-19 -3.27937245E-02  1.63527900E-01  1.50474324E-01
  7.21710230E-03 -1.72271976E-02  1.97549582E-18  8.17570170E-02  3.44627425E-02
 -1.67180303E-02  2.01999513E-18  8.35986462E-02  2.20479744E-02 -4.32948507E-04
  7.48606675E-19  3.09815126E-02  5.91965231E-03  1.32157418E-03  3.76385468E-04
 -1.63776839E-03  4.73748460E-20  5.57665734E-20  2.30793133E-03 -6.02243006E-02
  1.19781249E-01 -5.47705057E-18 -2.26670850E-01 -1.26890323E-01  1.27554101E-01
 -2.19575020E-18 -9.08723698E-02 -4.51332671E-02  2.62400411E-03 -1.93222370E-19
 -7.99661759E-03 -4.72084044E-04 -4.56717414E-03  1.44671266E-02 -1.52796963E-03
  2.76219004E-19  6.87070070E-19  2.84347852E-02 -5.50744857E-02 -9.23373464E-02
  2.19404061E-01  6.43597055E-03 -1.46918226E-02  4.39251036E-18  1.81786537E-01
  4.43849329E-02 -4.15079458E-03  3.59315444E-18  1.48704738E-01  2.24740399E-02
  3.62580193E-03  9.06340343E-19  3.75094101E-02  2.97179815E-03  1.03866700E-03
  8.19037965E-04 -2.65953610E-03  5.18319070E-20 -7.56834792E-20 -3.13220379E-03
 -1.57488814E-02  3.57205278E-02 -4.46409312E-18 -1.84749030E-01 -7.50571324E-02
  4.69847895E-02 -1.84713894E-18 -7.64448946E-02 -2.28463362E-02  8.85670264E-04
 -1.87713689E-19 -7.76863767E-03 -4.99744396E-04 -7.34600662E-04  7.66952773E-03
 -2.91761249E-03  1.93491702E-19  7.92395174E-19  3.27937245E-02 -9.23373464E-02
 -1.16100509E-01  1.63527900E-01  1.50474324E-01
Grdnt Energy                               R     -1.138711568458100E+02
Grdnt NVar                                 I                7
Grdnt IGetFC                               I                4
Internal Forces                            R   N=           7
 -8.28257806E-08  7.18089578E-08  7.18089569E-08  3.44013963E-08  3.44013910E-08
 -6.88027873E-08 -5.20591894E-16
Internal Force Constants                   R   N=          28
  1.07029876E+00  3.91196063E-02  3.64429438E-01  3.91196063E-02  5.56414291E-03
  3.64429438E-01  2.12769038E-02  3.54283314E-03 -1.28100785E-02  1.32149401E-01
  2.12769038E-02 -1.28100785E-02  3.54283314E-03 -8.33427038E-02  1.32149401E-01
 -4.25538075E-02  9.26724539E-03  9.26724539E-03 -4.88066976E-02 -4.88066976E-02
  9.76133951E-02  6.56052115E-17 -5.69503428E-16 -4.94008385E-16 -5.15924490E-16
  8.44798166E-16 -3.81634939E-16  8.26489075E-02
Mulliken Charges                           R   N=           4
 -3.90746339E-01  7.76615578E-02  1.56542391E-01  1.56542391E-01
APT Charges                                R   N=           4
 -7.08224026E-01  8.04050480E-01 -4.79132268E-02 -4.79132268E-02
Optimization MaxStp                        I                2
Optimization MaxJob                        I                1
Optimization Job offset                    I                0
Optimization Num results per geometry      I                8
Optimization Num geometry variables        I               12
Optimization Reference Energy              R     -1.130000000000000E+02
Opt point       1 Results for each geome   R   N=           8
 -8.71156846E-01  0.00000000E+00  8.28257806E-08  5.88871778E-08  3.25812271E-07
  2.08206615E-07  0.00000000E+00  0.00000000E+00
Opt point       1 Geometries               R   N=          12
  2.34613315E-31  2.20812532E-31  1.11965256E+00 -2.34962922E-31 -2.21141573E-31
 -1.12132099E+00  4.23025194E-17  1.75071380E+00 -2.20916081E+00 -3.41308163E-16
 -1.75071380E+00 -2.20916081E+00
Opt point       1 Gradient at each geome   R   N=          12
  3.70560929E-16  1.02806649E-15  8.28257800E-08  8.32191168E-16 -3.01567951E-15
 -2.43682859E-07  1.19131687E-16 -3.45668272E-08  8.04285405E-08 -1.32188378E-15
  3.45668290E-08  8.04285358E-08
Optimization Number of geometries          I   N=           1
           1
ONIOM Charges                              I   N=          16
           0           0           0           0           0           0
           0           0           0           0           0           0
           0           0           0           0
ONIOM Multiplicities                       I   N=          16
           1           0           0           0           0           0
           0           0           0           0           0           0
           0           0           0           0
Atom Layers                                I   N=           4
           1           1           1           1
Atom Modifiers                             I   N=           4
           0           0           0           0
Int Atom Modified Types                    I   N=           4
           0           0           0           0
Atom Modified Types                        C   N=           4
                                                
Link Atoms                                 I   N=           4
           0           0           0           0
Atom Modified MM Charges                   R   N=           4
  0.00000000E+00  0.00000000E+00  0.00000000E+00  0.00000000E+00
Link Distances                             R   N=          16
  0.00000000E+00  0.00000000E+00  0.00000000E+00  0.00000000E+00  0.00000000E+00
  0.00000000E+00  0.00000000E+00  0.00000000E+00  0.00000000E+00  0.00000000E+00
  0.00000000E+00  0.00000000E+00  0.00000000E+00  0.00000000E+00  0.00000000E+00
  0.00000000E+00
Cartesian Gradient                         R   N=          12
  3.70560907E-16  1.02806646E-15  8.28257800E-08  8.32191233E-16 -3.01567941E-15
 -2.43682859E-07  1.19131678E-16 -3.45668272E-08  8.04285405E-08 -1.32188382E-15
  3.45668290E-08  8.04285358E-08
Cartesian Force Constants                  R   N=          78
  2.28117651E-02 -6.21515137E-16  8.58199160E-02 -4.04653531E-16 -2.85072162E-14
  1.07029876E+00 -6.98044371E-02  5.63643029E-16  2.53017834E-16  2.13602873E-01
  7.54286960E-16 -1.22668941E-01  5.06928458E-16 -1.31275843E-15  6.91355270E-01
  3.65295120E-16  1.98236173E-15 -9.76397923E-01 -5.61137194E-16 -5.49030339E-13
  1.21362237E+00  2.34963360E-02 -8.51897071E-18  8.31176952E-17 -7.18992181E-02
  1.56483221E-16 -1.03278244E-16  2.42014223E-02 -9.14380098E-17  1.84245123E-02
  1.68830346E-02  3.99488346E-17 -2.84343164E-01  9.66557265E-02 -1.15951853E-16
  2.86871988E-01  1.01080999E-17  4.34777640E-02 -4.69504201E-02 -1.52651189E-17
  9.81719626E-02 -1.18612225E-01  2.61635183E-17 -1.27594244E-01  1.54616221E-01
  2.34963360E-02  8.47637548E-17  9.28337631E-18 -7.18992181E-02  6.78585050E-16
  4.52282083E-16  2.42014598E-02  6.81631375E-17  3.44121064E-19  2.42014223E-02
  3.00378587E-17  1.84245123E-02 -1.68830346E-02  7.40543460E-16 -2.84343164E-01
 -9.66557265E-02  6.09305136E-17 -2.09533362E-02 -1.40554827E-02 -1.02720342E-15
  2.86871988E-01  9.11281490E-17 -4.34777640E-02 -4.69504201E-02  3.62648985E-16
 -9.81719626E-02 -1.18612225E-01  8.13230455E-18  1.40554827E-02  1.09464240E-02
 -5.77187199E-16  1.27594244E-01  1.54616221E-01
Dipole Moment                              R   N=           3
  2.67885235E-16  1.98859494E-15 -1.13420996E+00
Dipole Derivatives                         R   N=          36
 -4.28857909E-01  3.02344842E-15  1.01577373E-15 -9.16188800E-17 -5.54564512E-01
 -7.54764585E-15 -7.18468403E-17  1.45804624E-14 -1.14124966E+00  2.69688515E-01
  4.77462802E-15  6.24976177E-16 -2.01773265E-16  8.97505053E-01 -1.20373203E-14
 -1.97838953E-16 -7.14734524E-15  1.24495787E+00  7.95846969E-02 -5.32119023E-16
  2.04412249E-15  3.62084821E-17 -1.71470270E-01  1.07494265E-01 -1.46151111E-17
  7.55434165E-02 -5.18541072E-02  7.95846969E-02 -3.77482130E-15 -2.71605297E-15
  2.29950744E-16 -1.71470270E-01 -1.07494265E-01  2.10957729E-16 -7.55434165E-02
 -5.18541072E-02
Polarizability                             R   N=           6
  8.19293610E+00  4.31739905E-16  1.36970170E+01 -2.48149462E-15 -1.93560966E-14
  1.97381147E+01
Polarizability Derivatives                 R   N=          72
 -8.91325825E-16 -1.08155242E-14  2.89247137E-14  4.30019138E+00  2.86843950E-14
  4.04205567E-15  1.37998255E-14 -9.98150508E-16 -6.82990964E-14  5.20872624E-16
  3.45945483E+00 -3.51222706E-16  3.93426697E+00  1.83548237E-16 -2.76388642E+00
 -2.07173259E-15  2.21853369E-14  1.29084103E+01  7.86574260E-15 -1.84370401E-14
  4.21729767E-14 -2.54573845E+00  3.64597542E-14  4.36500617E-15  7.67097465E-15
 -9.27858635E-16 -1.21343747E-13 -4.28586927E-15  4.16123410E+00 -1.54037596E-13
 -4.34414849E+00 -3.26224586E-15  9.24287939E+00  2.85858371E-16 -5.05687017E-15
 -6.69003050E+00 -1.88386605E-15  1.57195261E+00  5.65449901E-15 -8.77226469E-01
 -3.56428045E-15  1.79730055E-14  4.05581243E-01 -6.66607231E-16  6.96562193E+00
  1.16081226E-15 -3.81034446E+00  1.46297576E+00  2.04940761E-01  8.35818985E-16
 -3.23949648E+00 -2.11901474E-16  2.85641744E+00 -3.10918991E+00 -9.76740722E-15
 -1.57195261E+00 -6.73072442E-14 -8.77226469E-01 -3.37574212E-14 -2.11286885E-14
 -4.05581243E-01  2.60266612E-15 -6.96562193E+00  2.25278877E-15 -3.81034446E+00
 -1.46297576E+00  2.04940761E-01  1.71052549E-15 -3.23949648E+00  1.33219538E-15
 -2.85641744E+00 -3.10918991E+00
HyperPolarizability                        R   N=          10
  1.02794017E-14 -4.34161738E-15  6.81447161E-15  3.49134846E-13 -3.22081802E+00
  7.32163534E-15 -3.39638840E+01  8.67036306E-15  1.41472717E-13 -2.49179578E+01
Quadrupole Moment                          R   N=           6
  3.25923643E-03  7.88843552E-02 -8.21435916E-02 -5.87464343E-17  1.06947774E-16
 -3.34917981E-15
QEq coupling tensors                       R   N=          24
 -1.72781373E+00 -1.40509832E-15  2.14490453E+00 -3.47387279E-16 -1.25263265E-14
 -4.17090798E-01 -6.10941306E-01 -3.58456334E-16  3.25333298E-01 -2.51031087E-16
  2.62284770E-14  2.85608008E-01  1.42429539E-01  4.68746833E-17 -1.64907064E-01
 -3.25691073E-17  1.96136985E-01  2.24775249E-02  1.42429539E-01  9.52040034E-17
 -1.64907064E-01  5.88544149E-17 -1.96136985E-01  2.24775249E-02
Number of Normal Modes                     I                6
Vib-LE2Fix                                 I               14
Vib-NDFDPol                                I                0
Vib-NumROA                                 I                0
Vib-NDim                                   I                4
Vib-NDim0                                  I                4
Vib-LFlags                                 I                8
Vib-IFlags                                 I   N=          48
           0           0           1           0           0           0
           0           0           0           0           2           0
           0           0           0           0           0           0
           3           0           0           0           0           0
           0           0           4           0           0           0
           0           0           0           0           5           0
           0           0           0           0           0           0
           6           0           0           0           0           0
Vib-AtMass                                 R   N=           4
  1.59949146E+01  1.20000000E+01  1.00782504E+00  1.00782504E+00
Vib-E2                                     R   N=          84
  1.33309689E+03  1.37439232E+03  1.66836958E+03  2.00792447E+03  3.16818698E+03
  3.24259230E+03  1.36619942E+00  1.34272472E+00  1.10302860E+00  7.32535257E+00
  1.04829359E+00  1.12037466E+00  1.43049955E+00  1.49437168E+00  1.80892890E+00
  1.74009709E+01  6.19947256E+00  6.94061851E+00  1.48836936E+00  1.96436258E+01
  1.00775513E+01  1.67051454E+02  5.57265964E+01  1.07947302E+02  4.27702460E-01
  2.62866643E+00  1.26509085E+01  1.51968666E+01  1.36720065E+02  7.39137963E+01
  7.50000000E-01  7.50000000E-01  5.50604185E-01  2.28150925E-01  1.96735143E-01
  7.50000000E-01  8.57142857E-01  8.57142857E-01  7.10180187E-01  3.71535648E-01
  3.28786439E-01  8.57142857E-01  0.00000000E+00  0.00000000E+00  0.00000000E+00
  0.00000000E+00  0.00000000E+00  0.00000000E+00  0.00000000E+00  0.00000000E+00
  0.00000000E+00  0.00000000E+00  0.00000000E+00  0.00000000E+00  0.00000000E+00
  0.00000000E+00  0.00000000E+00  0.00000000E+00  0.00000000E+00  0.00000000E+00
  0.00000000E+00  0.00000000E+00  0.00000000E+00  0.00000000E+00  0.00000000E+00
  0.00000000E+00  0.00000000E+00  0.00000000E+00  0.00000000E+00  0.00000000E+00
  0.00000000E+00  0.00000000E+00  0.00000000E+00  0.00000000E+00  0.00000000E+00
  0.00000000E+00  0.00000000E+00  0.00000000E+00  0.00000000E+00  0.00000000E+00
  0.00000000E+00  0.00000000E+00  0.00000000E+00  0.00000000E+00
Vib-Modes                                  R   N=          72
  4.25595068E-02  4.36290879E-16 -4.86560786E-17 -1.73588825E-01 -9.88512833E-16
 -1.65160526E-17  6.95721068E-01  1.19412609E-15  3.41055507E-15  6.95721068E-01
  3.65167398E-15 -2.44169399E-15 -2.22041818E-16  7.93713289E-02 -3.42244140E-14
  9.27036187E-16 -1.47911244E-01 -4.95131038E-14 -3.77845986E-15  2.50736622E-01
  6.50417077E-01 -3.73563638E-15  2.50736622E-01 -6.50417077E-01  1.85811657E-18
 -6.87712737E-14 -7.96497155E-02 -2.17070738E-17  9.28340032E-14  3.36283921E-03
  1.57015611E-16  3.49632367E-01  6.12029015E-01  7.19571390E-17 -3.49632367E-01
  6.12029015E-01 -3.47075773E-17  5.24257209E-14 -4.14424202E-01  1.45849132E-16
 -5.97338846E-14  5.83578186E-01 -6.48541656E-16 -4.57568406E-01 -1.85676318E-01
 -5.37224532E-16  4.57568406E-01 -1.85676318E-01  6.08939751E-17 -2.97188998E-14
 -1.09627932E-03 -2.40234125E-16  3.00524572E-12  6.06625058E-02  1.02138091E-15
  6.11505249E-01 -3.52449656E-01  8.72614071E-16 -6.11505249E-01 -3.52449656E-01
 -6.41083502E-17  3.92017425E-04 -2.99128806E-14  2.49366874E-16 -1.01187244E-01
  1.93638787E-12 -1.02703863E-15  5.99298785E-01 -3.68403937E-01 -9.24683970E-16
  5.99298784E-01  3.68403937E-01
ClPar MaxAn                                I              200
ClPar NIntPar                              I               12
ClPar NRealPar                             I               16
ClPar NBits                                I               30
ClPar LenBitVec                            I                1
ClPar Read BitMap                          I   N=         200
           0           0           0           0           0           0
           0           0           0           0           0           0
           0           0           0           0           0           0
           0           0           0           0           0           0
           0           0           0           0           0           0
           0           0           0           0           0           0
           0           0           0           0           0           0
           0           0           0           0           0           0
           0           0           0           0           0           0
           0           0           0           0           0           0
           0           0           0           0           0           0
           0           0           0           0           0           0
           0           0           0           0           0           0
           0           0           0           0           0           0
           0           0           0           0           0           0
           0           0           0           0           0           0
           0           0           0           0           0           0
           0           0           0           0           0           0
           0           0           0           0           0           0
           0           0           0           0           0           0
           0           0           0           0           0           0
           0           0           0           0           0           0
           0           0           0           0           0           0
           0           0           0           0           0           0
           0           0           0           0           0           0
           0           0           0           0           0           0
           0           0           0           0           0           0
           0           0           0           0           0           0
           0           0           0           0           0           0
           0           0           0           0           0           0
           0           0           0           0           0           0
           0           0           0           0           0           0
           0           0           0           0           0           0
           0           0
ClPar Default BitMap                       I   N=         200
      516096      516096      516096      516096      516096      516096
      516096      516096      516096      516096      516096      516096
      516096      516096      516096      516096      516096      516096
      516096      516096      516096      516096      516096      516096
      516096      516096      516096      516096      516096      516096
      516096      516096      516096      516096      516096      516096
      516096      516096      516096      516096      516096      516096
      516096      516096      516096      516096      516096      516096
      516096      516096      516096      516096      516096      516096
      516096      516096      516096      516096      516096      516096
      516096      516096      516096      516096      516096      516096
      516096      516096      516096      516096      516096      516096
      516096      516096      516096      516096      516096      516096
      516096      516096      516096      516096      516096      516096
      516096      516096      122880      122880      122880      122880
      122880      122880      122880      122880      122880      122880
      122880      122880      122880      122880      122880      122880
      122880      122880      122880      122880      122880      122880
      122880      122880      122880      122880      122880      122880
      122880      122880      122880      122880      122880      122880
      122880      122880      122880      122880      122880      122880
      122880      122880      122880      122880      122880      122880
      122880      122880      122880      122880      122880      122880
      122880      122880      122880      122880      122880      122880
      122880      122880      122880      122880      122880      122880
      122880      122880      122880      122880      122880      122880
      122880      122880      122880      122880      122880      122880
      122880      122880      122880      122880      122880      122880
      122880      122880      122880      122880      122880      122880
      122880      122880      122880      122880      122880      122880
      122880      122880      122880      122880      122880      122880
      122880      122880      122880      122880      122880      122880
      122880      122880      122880      122880      122880      122880
      122880      122880
ClPar Int Params                           I   N=        2400
           0           0           0           0           0           0
           0           0           0           0           0           0
           0           0           0           0           0           0
           0           0           0           0           0           0
           0           0           0           0           0           0
           0           0           0           0           0           0
           0           0           0           0           0           0
           0           0           0           0           0           0
           0           0           0           0           0           0
           0           0           0           0           0           0
           0           0           0           0           0           0
           0           0           0           0           0           0
           0           0           0           0           0           0
           0           0           0           0           0           0
           0           0           0           0           0           0
           0           0           0           0           0           0
           0           0           0           0           0           0
           0           0           0           0           0           0
           0           0           0           0           0           0
           0           0           0           0           0           0
           0           0           0           0           0           0
           0           0           0           0           0           0
           0           0           0           0           0           0
           0           0           0           0           0           0
           0           0           0           0           0           0
           0           0           0           0           0           0
           0           0           0           0           0           0
           0           0           0           0           0           0
           0           0           0           0           0           0
           0           0           0           0           0           0
           0           0           0           0           0           0
           0           0           0           0           0           0
           0           0           0           0           0           0
           0           0           0           0           0           0
           0           0           0           0           0           0
           0           0           0           0           0           0
           0           0           0           0           0           0
           0           0           0           0           0           0
           0           0           0           0           0           0
           0           0           0           0           0           0
           0           0           0           0           0           0
           0           0           0           0           0           0
           0           0           0           0           0           0
           0           0           0           0           0           0
           0           0           0           0           0           0
           0           0           0           0           0           0
           0           0           0           0           0           0
           0           0           0           0           0           0
           0           0           0           0           0           0
           0           0           0           0           0           0
           0           0           0           0           0           0
           0           0           0           0           0           0
           0           0           0           0           0           0
           0           0           0           0           0           0
           0           0           0           0           0           0
           0           0           0           0           0           0
           0           0           0           0           0           0
           0           0           0           0           0           0
           0           0           0           0           0           0
           0           0           0           0           0           0
           0           0           0           0           0           0
           0           0           0           0           0           0
           0           0           0           0           0           0
           0           0           0           0           0           0
           0           0           0           0           0           0
           0           0           0           0           0           0
           0           0           0           0           0           0
           0           0           0           0           0           0
           0           0           0           0           0           0
           0           0           0           0           0           0
           0           0           0           0           0           0
           0           0           0           0           0           0
           0           0           0           0           0           0
           0           0           0           0           0           0
           0           0           0           0           0           0
           0           0           0           0           0           0
           0           0           0           0           0           0
           0           0           0           0           0           0
           0           0           0           0           0           0
           0           0           0           0           0           0
           0           0           0           0           0           0
           0           0           0           0           0           0
           0           0           0           0           0           0
           0           0           0           0           0           0
           0           0           0           0           0           0
           0           0           0           0           0           0
           0           0           0           0           0           0
           0           0           0           0           0           0
           0           0           0           0           0           0
           0           0           0           0           0           0
           0           0           0           0           0           0
           0           0           0           0           0           0
           0           0           0           0           0           0
           0           0           0           0           0           0
           0           0           0           0           0           0
           0           0           0           0           0           0
           0           0           0           0           0           0
           0           0           0           0           0           0
           0           0           0           0           0           0
           0           0           0           0           0           0
           0           0           0           0           0           0
           0           0           0           0           0           0
           0           0           0           0           0           0
           0           0           0           0           0           0
           0           0           0           0           0           0
           0           0           0           0           0           0
           0           0           0           0           0           0
           0           0           0           0           0           0
           0           0           0           0           0           0
           0           0           0           0           0           0
           0           0           0           0           0           0
           0           0           0           0           0           0
           0           0           0           0           0           0
           0           0           0           0           0           0
           0           0           0           0           0           0
           0           0           0           0           0           0
           0           0           0           0           0           0
           0           0           0           0           0           0
           0           0           0           0           0           0
           0           0           0           0           0           0
           0           0           0           0           0           0
           0           0           0           0           0           0
           0           0           0           0           0           0
           0           0           0           0           0           0
           0           0           0           0           0           0
           0           0           0           0           0           0
           0           0           0           0           0           0
           0           0           0           0           0           0
           0           0           0           0           0           0
           0           0           0           0           0           0
           0           0           0           0           0           0
           0           0           0           0           0           0
           0           0           0           0           0           0
           0           0           0           0           0           0
           0           0           0           0           0           0
           0           0           0           0           0           0
           0           0           0           0           0           0
           0           0           0           0           0           0
           0           0           0           0           0           0
           0           0           0           0           0           0
           0           0           0           0           0           0
           0           0           0           0           0           0
           0           0           0           0           0           0
           0           0           0           0           0           0
           0           0           0           0           0           0
           0           0           0           0           0           0
           0           0           0           0           0           0
           0           0           0           0           0           0
           0           0           0           0           0           0
           0           0           0           0           0           0
           0           0           0           0           0           0
           0           0           0           0           0           0
           0           0           0           0           0           0
           0           0           0           0           0           0
           0           0           0           0           0           0
           0           0           0           0           0           0
           0           0           0           0           0           0
           0           0           0           0           0           0
           0           0           0           0           0           0
           0           0           0           0           0           0
           0           0           0           0           0           0
           0           0           0           0           0           0
           0           0           0           0           0           0
           0           0           0           0           0           0
           0           0           0           0           0           0
           0           0           0           0           0           0
           0           0           0           0           0           0
           0           0           0           0           0           0
           0           0           0           0           0           0
           0           0           0           0           0           0
           0           0           0           0           0           0
           0           0           0           0           0           0
           0           0           0           0           0           0
           0           0           0           0           0           0
           0           0           0           0           0           0
           0           0           0           0           0           0
           0           0           0           0           0           0
           0           0           0           0           0           0
           0           0           0           0           0           0
           0           0           0           0           0           0
           0           0           0           0           0           0
           0           0           0           0           0           0
           0           0           0           0           0           0
           0           0           0           0           0           0
           0           0           0           0           0           0
           0           0           0           0           0           0
           0           0           0           0           0           0
           0           0           0           0           0           0
           0           0           0           0           0           0
           0           0           0           0           0           0
           0           0           0           0           0           0
           0           0           0           0           0           0
           0           0           0           0           0           0
           0           0           0           0           0           0
           0           0           0           0           0           0
           0           0           0           0           0           0
           0           0           0           0           0           0
           0           0           0           0           0           0
           0           0           0           0           0           0
           0           0           0           0           0           0
           0           0           0           0           0           0
           0           0           0           0           0           0
           0           0           0           0           0           0
           0           0           0           0           0           0
           0           0           0           0           0           0
           0           0           0           0           0           0
           0           0           0           0           0           0
           0           0           0           0           0           0
           0           0           0           0           0           0
           0           0           0           0           0           0
           0           0           0           0           0           0
           0           0           0           0           0           0
           0           0           0           0           0           0
           0           0           0           0           0           0
           0           0           0           0           0           0
           0           0           0           0           0           0
           0           0           0           0           0           0
           0           0           0           0           0           0
           0           0           0           0           0           0
           0           0           0           0           0           0
           0           0           0           0           0           0
           0           0           0           0           0           0
           0           0           0           0           0           0
           0           0           0           0           0           0
           0           0           0           0           0           0
           0           0           0           0           0           0
           0           0           0           0           0           0
           0           0           0           0           0           0
           0           0           0           0           0           0
           0           0           0           0           0           0
           0           0           0           0           0           0
           0           0           0           0           0           0
           0           0           0           0           0           0
           0           0           0           0           0           0
           0           0           0           0           0           0
           0           0           0           0           0           0
           0           0           0           0           0           0
           0           0           0           0           0           0
           0           0           0           0           0           0
           0           0           0           0           0           0
           0           0           0           0           0           0
           0           0           0           0           0           0
           0           0           0           0           0           0
           0           0           0           0           0           0
           0           0           0           0           0           0
           0           0           0           0           0           0
           0           0           0           0           0           0
           0           0           0           0           0           0
           0           0           0           0           0           0
           0           0           0           0           0           0
           0           0           0           0           0           0
           0           0           0           0           0           0
           0           0           0           0           0           0
           0           0           0           0           0           0
           0           0           0           0           0           0
           0           0           0           0           0           0
           0           0           0           0           0           0
           0           0           0           0           0           0
           0           0           0           0           0           0
           0           0           0           0           0           0
           0           0           0           0           0           0
           0           0           0           0           0           0
           0           0           0           0           0           0
           0           0           0           0           0           0
           0           0           0           0           0           0
           0           0           0           0           0           0
           0           0           0           0           0           0
           0           0           0           0           0           0
           0           0           0           0           0           0
           0           0           0           0           0           0
           0           0           0           0           0           0
           0           0           0           0           0           0
           0           0           0           0           0           0
           0           0           0           0           0           0
           0           0           0           0           0           0
           0           0           0           0           0           0
           0           0           0           0           0           0
           0           0           0           0           0           0
           0           0           0           0           0           0
           0           0           0           0           0           0
           0           0           0           0           0           0
           0           0           0           0           0           0
           0           0           0           0           0           0
           0           0           0           0           0           0
           0           0           0           0           0           0
           0           0           0           0           0           0
           0           0           0           0           0           0
           0           0           0           0           0           0
           0           0           0           0           0           0
           0           0           0           0           0           0
           0           0           0           0           0           0
           0           0           0           0           0           0
           0           0           0           0           0           0
           0           0           0           0           0           0
           0           0           0           0           0           0
           0           0           0           0           0           0
           0           0           0           0           0           0
           0           0           0           0           0           0
           0           0           0           0           0           0
           0           0           0           0           0           0
           0           0           0           0           0           0
           0           0           0           0           0           0
           0           0           0           0           0           0
           0           0           0           0           0           0
           0           0           0           0           0           0
           0           0           0           0           0           0
           0           0           0           0           0           0
           0           0           0           0           0           0
           0           0           0           0           0           0
           0           0           0           0           0           0
           0           0           0           0           0           0
           0           0           0           0           0           0
           0           0           0           0           0           0
           0           0           0           0           0           0
           0           0           0           0           0           0
           0           0           0           0           0           0
           0           0           0           0           0           0
           0           0           0           0           0           0
           0           0           0           0           0           0
           0           0           0           0           0           0
           0           0           0           0           0           0
           0           0           0           0           0           0
           0           0           0           0           0           0
           0           0           0           0           0           0
           0           0           0           0           0           0
           0           0           0           0           0           0
           0           0           0           0           0           0
           0           0           0           0           0           0
           0           0           0           0           0           0
           0           0           0           0           0           0
           0           0           0           0           0           0
           0           0           0           0           0           0
           0           0           0           0           0           0
           0           0           0           0           0           0
           0           0           0           0           0           0
           0           0           0           0           0           0
           0           0           0           0           0           0
           0           0           0           0           0           0
           0           0           0           0           0           0
           0           0           0           0           0           0
           0           0           0           0           0           0
           0           0           0           0           0           0
           0           0           0           0           0           0
           0           0           0           0           0           0
           0           0           0           0           0           0
           0           0           0           0           0           0
           0           0           0           0           0           0
           0           0           0           0           0           0
           0           0           0           0           0           0
           0           0           0           0           0           0
           0           0           0           0           0           0
           0           0           0           0           0           0
           0           0           0           0           0           0
           0           0           0           0           0           0
           0           0           0           0           0           0
           0           0           0           0           0           0
           0           0           0           0           0           0
           0           0           0           0           0           0
           0           0           0           0           0           0
           0           0           0           0           0           0
           0           0           0           0           0           0
           0           0           0           0           0           0
           0           0           0           0           0           0
           0           0           0           0           0           0
           0           0           0           0           0           0
           0           0           0           0           0           0
           0           0           0           0           0           0
           0           0           0           0           0           0
           0           0           0           0           0           0
           0           0           0           0           0           0
           0           0           0           0           0           0
           0           0           0           0           0           0
           0           0           0           0           0           0
           0           0           0           0           0           0
           0           0           0           0           0           0
           0           0           0           0           0           0
           0           0           0           0           0           0
           0           0           0           0           0           0
           0           0           0           0           0           0
           0           0           0           0           0           0
           0           0           0           0           0           0
           0           0           0           0           0           0
           0           0           0           0           0           0
           0           0           0           0           0           0
           0           0           0           0           0           0
           0           0           0           0           0           0
           0           0           0           0           0           0
           0           0           0           0           0           0
           0           0           0           0           0           0
           0           0           0           0           0           0
           0           0           0           0           0           0
           0           0           0           0           0           0
           0           0           0           0           0           0
           0           0           0           0           0           0
           0           0           0           0           0           0
           0           0           0           0           0           0
           0           0           0           0           0           0
           0           0           0           0           0           0
           0           0           0           0           0           0
           0           0           0           0           0           0
ClPar Real Params                          R   N=        3200
  0.00000000E+00  0.00000000E+00  0.00000000E+00  0.00000000E+00  0.00000000E+00
  0.00000000E+00  0.00000000E+00  0.00000000E+00  0.00000000E+00  0.00000000E+00
  0.00000000E+00  0.00000000E+00  0.00000000E+00  0.00000000E+00  0.00000000E+00
  0.00000000E+00  0.00000000E+00  0.00000000E+00  0.00000000E+00  0.00000000E+00
  0.00000000E+00  0.00000000E+00  0.00000000E+00  0.00000000E+00  0.00000000E+00
  0.00000000E+00  0.00000000E+00  0.00000000E+00  0.00000000E+00  0.00000000E+00
  0.00000000E+00  0.00000000E+00  0.00000000E+00  0.00000000E+00  0.00000000E+00
  0.00000000E+00  0.00000000E+00  0.00000000E+00  0.00000000E+00  0.00000000E+00
  0.00000000E+00  0.00000000E+00  0.00000000E+00  0.00000000E+00  0.00000000E+00
  0.00000000E+00  0.00000000E+00  0.00000000E+00  0.00000000E+00  0.00000000E+00
  0.00000000E+00  0.00000000E+00  0.00000000E+00  0.00000000E+00  0.00000000E+00
  0.00000000E+00  0.00000000E+00  0.00000000E+00  0.00000000E+00  0.00000000E+00
  0.00000000E+00  0.00000000E+00  0.00000000E+00  0.00000000E+00  0.00000000E+00
  0.00000000E+00  0.00000000E+00  0.00000000E+00  0.00000000E+00  0.00000000E+00
  0.00000000E+00  0.00000000E+00  0.00000000E+00  0.00000000E+00  0.00000000E+00
  0.00000000E+00  0.00000000E+00  0.00000000E+00  0.00000000E+00  0.00000000E+00
  0.00000000E+00  0.00000000E+00  0.00000000E+00  0.00000000E+00  0.00000000E+00
  0.00000000E+00  0.00000000E+00  0.00000000E+00  0.00000000E+00  0.00000000E+00
  0.00000000E+00  0.00000000E+00  0.00000000E+00  0.00000000E+00  0.00000000E+00
  0.00000000E+00  0.00000000E+00  0.00000000E+00  0.00000000E+00  0.00000000E+00
  0.00000000E+00  0.00000000E+00  0.00000000E+00  0.00000000E+00  0.00000000E+00
  0.00000000E+00  0.00000000E+00  0.00000000E+00  0.00000000E+00  0.00000000E+00
  0.00000000E+00  0.00000000E+00  0.00000000E+00  0.00000000E+00  0.00000000E+00
  0.00000000E+00  0.00000000E+00  0.00000000E+00  0.00000000E+00  0.00000000E+00
  0.00000000E+00  0.00000000E+00  0.00000000E+00  0.00000000E+00  0.00000000E+00
  0.00000000E+00  0.00000000E+00  0.00000000E+00  0.00000000E+00  0.00000000E+00
  0.00000000E+00  0.00000000E+00  0.00000000E+00  0.00000000E+00  0.00000000E+00
  0.00000000E+00  0.00000000E+00  0.00000000E+00  0.00000000E+00  0.00000000E+00
  0.00000000E+00  0.00000000E+00  0.00000000E+00  0.00000000E+00  0.00000000E+00
  0.00000000E+00  0.00000000E+00  0.00000000E+00  0.00000000E+00  0.00000000E+00
  0.00000000E+00  0.00000000E+00  0.00000000E+00  0.00000000E+00  0.00000000E+00
  0.00000000E+00  0.00000000E+00  0.00000000E+00  0.00000000E+00  0.00000000E+00
  0.00000000E+00  0.00000000E+00  0.00000000E+00  0.00000000E+00  0.00000000E+00
  0.00000000E+00  0.00000000E+00  0.00000000E+00  0.00000000E+00  0.00000000E+00
  0.00000000E+00  0.00000000E+00  0.00000000E+00  0.00000000E+00  0.00000000E+00
  0.00000000E+00  0.00000000E+00  0.00000000E+00  0.00000000E+00  0.00000000E+00
  0.00000000E+00  0.00000000E+00  0.00000000E+00  0.00000000E+00  0.00000000E+00
  0.00000000E+00  0.00000000E+00  0.00000000E+00  0.00000000E+00  0.00000000E+00
  0.00000000E+00  0.00000000E+00  0.00000000E+00  0.00000000E+00  0.00000000E+00
  0.00000000E+00  0.00000000E+00  0.00000000E+00  0.00000000E+00  0.00000000E+00
  2.26000000E-01  4.43000000E-01  1.01000000E-01  1.47000000E-01  1.92000000E-01
  2.40000000E-01  2.75000000E-01  3.03000000E-01  3.25000000E-01  4.13000000E-01
  9.60000000E-02  1.35000000E-01  1.73000000E-01  2.11000000E-01  2.48000000E-01
  2.86000000E-01  3.23000000E-01  3.60000000E-01  8.20000000E-02  1.04000000E-01
  1.17000000E-01  1.23000000E-01  1.29000000E-01  1.34000000E-01  1.40000000E-01
  1.44000000E-01  1.48000000E-01  1.52000000E-01  1.55000000E-01  1.76000000E-01
  1.98000000E-01  2.19000000E-01  2.39000000E-01  2.60000000E-01  2.80000000E-01
  3.00000000E-01  7.90000000E-02  9.90000000E-02  1.19000000E-01  1.26000000E-01
  1.33000000E-01  1.40000000E-01  1.47000000E-01  1.53000000E-01  1.58000000E-01
  1.63000000E-01  1.57000000E-01  1.70000000E-01  1.87000000E-01  2.03000000E-01
  2.19000000E-01  2.34000000E-01  2.50000000E-01  2.65000000E-01  7.40000000E-02
  9.20000000E-02  1.05000000E-01  1.06000000E-01  1.07000000E-01  1.08000000E-01
  1.09000000E-01  1.10000000E-01  1.11000000E-01  1.12000000E-01  1.13000000E-01
  1.14000000E-01  1.15000000E-01  1.16000000E-01  1.17000000E-01  1.17000000E-01
  1.26000000E-01  1.36000000E-01  1.46000000E-01  1.55000000E-01  1.65000000E-01
  1.73000000E-01  1.82000000E-01  1.90000000E-01  1.62000000E-01  1.78000000E-01
  1.10000000E-01  1.35000000E-01  1.59000000E-01  1.83000000E-01  2.07000000E-01
  2.31000000E-01  6.90000000E-02  9.40000000E-02  1.02000000E-01  1.03000000E-01
  1.05000000E-01  1.07000000E-01  1.09000000E-01  1.11000000E-01  1.13000000E-01
  1.15000000E-01  1.17000000E-01  1.19000000E-01  1.20000000E-01  1.22000000E-01
  1.24000000E-01  1.26000000E-01  1.28000000E-01  1.28000000E-01  1.28000000E-01
  1.28000000E-01  1.28000000E-01  1.28000000E-01  1.28000000E-01  1.28000000E-01
  1.28000000E-01  1.28000000E-01  1.28000000E-01  1.28000000E-01  1.28000000E-01
  1.28000000E-01  1.28000000E-01  1.28000000E-01  1.28000000E-01  1.28000000E-01
  1.28000000E-01  1.28000000E-01  1.28000000E-01  1.28000000E-01  1.28000000E-01
  1.28000000E-01  1.28000000E-01  1.28000000E-01  1.28000000E-01  1.28000000E-01
  1.28000000E-01  1.28000000E-01  1.28000000E-01  1.28000000E-01  1.28000000E-01
  1.28000000E-01  1.28000000E-01  1.28000000E-01  1.28000000E-01  1.28000000E-01
  1.28000000E-01  1.28000000E-01  1.28000000E-01  1.28000000E-01  1.28000000E-01
  1.28000000E-01  1.28000000E-01  1.28000000E-01  1.28000000E-01  1.28000000E-01
  1.28000000E-01  1.28000000E-01  1.28000000E-01  1.28000000E-01  1.28000000E-01
  1.28000000E-01  1.28000000E-01  1.28000000E-01  1.28000000E-01  1.28000000E-01
  1.28000000E-01  1.28000000E-01  1.28000000E-01  1.28000000E-01  1.28000000E-01
  1.28000000E-01  1.28000000E-01  1.28000000E-01  1.28000000E-01  1.28000000E-01
  1.28000000E-01  1.28000000E-01  1.28000000E-01  1.28000000E-01  1.28000000E-01
  1.28000000E-01  1.28000000E-01  1.28000000E-01  1.28000000E-01  1.28000000E-01
  1.28000000E-01  1.28000000E-01  1.28000000E-01  1.28000000E-01  1.28000000E-01
  1.28000000E-01  1.28000000E-01  1.28000000E-01  1.28000000E-01  1.28000000E-01
  1.28000000E-01  1.28000000E-01  1.28000000E-01  1.28000000E-01  1.28000000E-01
  1.28000000E-01  1.28000000E-01  1.28000000E-01  1.28000000E-01  1.28000000E-01
  5.47000000E-01  5.92000000E-01  5.99000000E-01  6.68000000E-01  6.98000000E-01
  7.18000000E-01  7.26000000E-01  7.36000000E-01  7.43000000E-01  7.45000000E-01
  6.07000000E-01  6.66000000E-01  6.93000000E-01  7.09000000E-01  7.20000000E-01
  7.29000000E-01  7.35000000E-01  7.40000000E-01  6.08000000E-01  7.34000000E-01
  7.46000000E-01  7.55000000E-01  7.61000000E-01  7.65000000E-01  7.67000000E-01
  7.60000000E-01  7.49000000E-01  7.33000000E-01  7.08000000E-01  6.48000000E-01
  6.88000000E-01  7.09000000E-01  7.22000000E-01  7.31000000E-01  7.38000000E-01
  7.44000000E-01  6.09000000E-01  7.30000000E-01  7.41000000E-01  7.52000000E-01
  7.58000000E-01  7.63000000E-01  7.66000000E-01  7.58000000E-01  7.48000000E-01
  7.33000000E-01  7.01000000E-01  6.45000000E-01  6.86000000E-01  7.08000000E-01
  7.22000000E-01  7.31000000E-01  7.38000000E-01  7.44000000E-01  6.08000000E-01
  7.28000000E-01  7.32000000E-01  7.32000000E-01  7.32000000E-01  7.32000000E-01
  7.32000000E-01  7.32000000E-01  7.32000000E-01  7.32000000E-01  7.32000000E-01
  7.31000000E-01  7.31000000E-01  7.31000000E-01  7.31000000E-01  7.46000000E-01
  7.37000000E-01  7.46000000E-01  7.51000000E-01  7.55000000E-01  7.58000000E-01
  7.47000000E-01  7.32000000E-01  7.11000000E-01  7.41000000E-01  7.07000000E-01
  7.47000000E-01  7.43000000E-01  7.42000000E-01  7.42000000E-01  7.43000000E-01
  7.44000000E-01  6.05000000E-01  7.24000000E-01  7.26000000E-01  7.26000000E-01
  7.27000000E-01  7.27000000E-01  7.27000000E-01  7.28000000E-01  7.28000000E-01
  7.28000000E-01  7.28000000E-01  7.28000000E-01  7.29000000E-01  7.29000000E-01
  7.29000000E-01  7.29000000E-01  7.29000000E-01  7.29000000E-01  7.29000000E-01
  7.29000000E-01  7.29000000E-01  7.29000000E-01  7.29000000E-01  7.29000000E-01
  7.29000000E-01  7.29000000E-01  7.29000000E-01  7.29000000E-01  7.29000000E-01
  7.29000000E-01  7.29000000E-01  7.29000000E-01  7.29000000E-01  7.29000000E-01
  7.29000000E-01  7.29000000E-01  7.29000000E-01  7.29000000E-01  7.29000000E-01
  7.29000000E-01  7.29000000E-01  7.29000000E-01  7.29000000E-01  7.29000000E-01
  7.29000000E-01  7.29000000E-01  7.29000000E-01  7.29000000E-01  7.29000000E-01
  7.29000000E-01  7.29000000E-01  7.29000000E-01  7.29000000E-01  7.29000000E-01
  7.29000000E-01  7.29000000E-01  7.29000000E-01  7.29000000E-01  7.29000000E-01
  7.29000000E-01  7.29000000E-01  7.29000000E-01  7.29000000E-01  7.29000000E-01
  7.29000000E-01  7.29000000E-01  7.29000000E-01  7.29000000E-01  7.29000000E-01
  7.29000000E-01  7.29000000E-01  7.29000000E-01  7.29000000E-01  7.29000000E-01
  7.29000000E-01  7.29000000E-01  7.29000000E-01  7.29000000E-01  7.29000000E-01
  7.29000000E-01  7.29000000E-01  7.29000000E-01  7.29000000E-01  7.29000000E-01
  7.29000000E-01  7.29000000E-01  7.29000000E-01  7.29000000E-01  7.29000000E-01
  7.29000000E-01  7.29000000E-01  7.29000000E-01  7.29000000E-01  7.29000000E-01
  7.29000000E-01  7.29000000E-01  7.29000000E-01  7.29000000E-01  7.29000000E-01
  7.29000000E-01  7.29000000E-01  7.29000000E-01  7.29000000E-01  7.29000000E-01
  7.29000000E-01  7.29000000E-01  7.29000000E-01  7.29000000E-01  7.29000000E-01
  7.29000000E-01  7.29000000E-01  7.29000000E-01  7.29000000E-01  7.29000000E-01
  1.00000000E+00  1.70400000E+00  3.23000000E-01  3.89000000E-01  4.67000000E-01
  5.67000000E-01  6.36000000E-01  6.64000000E-01  6.96000000E-01  8.79000000E-01
  3.07000000E-01  3.48000000E-01  4.00000000E-01  4.54000000E-01  5.09000000E-01
  5.65000000E-01  6.21000000E-01  6.77000000E-01  2.56000000E-01  3.50000000E-01
  3.64000000E-01  3.62000000E-01  3.62000000E-01  3.62000000E-01  3.62000000E-01
  3.65000000E-01  3.69000000E-01  3.75000000E-01  3.86000000E-01  4.46000000E-01
  4.55000000E-01  4.74000000E-01  4.96000000E-01  5.20000000E-01  5.45000000E-01
  5.70000000E-01  2.45000000E-01  3.22000000E-01  3.55000000E-01  3.59000000E-01
  3.64000000E-01  3.70000000E-01  3.76000000E-01  3.85000000E-01  3.95000000E-01
  4.08000000E-01  3.76000000E-01  4.23000000E-01  4.22000000E-01  4.32000000E-01
  4.45000000E-01  4.59000000E-01  4.75000000E-01  4.91000000E-01  2.28000000E-01
  2.92000000E-01  2.89000000E-01  2.92000000E-01  2.95000000E-01  2.98000000E-01
  3.00000000E-01  3.03000000E-01  3.06000000E-01  3.09000000E-01  3.12000000E-01
  3.15000000E-01  3.18000000E-01  3.21000000E-01  3.24000000E-01  3.61000000E-01
  3.69000000E-01  3.70000000E-01  3.72000000E-01  3.75000000E-01  3.78000000E-01
  3.85000000E-01  3.94000000E-01  4.07000000E-01  5.26000000E-01  6.21000000E-01
  3.36000000E-01  3.54000000E-01  3.71000000E-01  3.86000000E-01  4.02000000E-01
  4.17000000E-01  2.09000000E-01  2.94000000E-01  2.65000000E-01  2.72000000E-01
  2.78000000E-01  2.84000000E-01  2.91000000E-01  2.97000000E-01  3.03000000E-01
  3.10000000E-01  3.16000000E-01  3.22000000E-01  3.29000000E-01  3.35000000E-01
  3.41000000E-01  3.48000000E-01  3.54000000E-01  3.54000000E-01  3.54000000E-01
  3.54000000E-01  3.54000000E-01  3.54000000E-01  3.54000000E-01  3.54000000E-01
  3.54000000E-01  3.54000000E-01  3.54000000E-01  3.54000000E-01  3.54000000E-01
  3.54000000E-01  3.54000000E-01  3.54000000E-01  3.54000000E-01  3.54000000E-01
  3.54000000E-01  3.54000000E-01  3.54000000E-01  3.54000000E-01  3.54000000E-01
  3.54000000E-01  3.54000000E-01  3.54000000E-01  3.54000000E-01  3.54000000E-01
  3.54000000E-01  3.54000000E-01  3.54000000E-01  3.54000000E-01  3.54000000E-01
  3.54000000E-01  3.54000000E-01  3.54000000E-01  3.54000000E-01  3.54000000E-01
  3.54000000E-01  3.54000000E-01  3.54000000E-01  3.54000000E-01  3.54000000E-01
  3.54000000E-01  3.54000000E-01  3.54000000E-01  3.54000000E-01  3.54000000E-01
  3.54000000E-01  3.54000000E-01  3.54000000E-01  3.54000000E-01  3.54000000E-01
  3.54000000E-01  3.54000000E-01  3.54000000E-01  3.54000000E-01  3.54000000E-01
  3.54000000E-01  3.54000000E-01  3.54000000E-01  3.54000000E-01  3.54000000E-01
  3.54000000E-01  3.54000000E-01  3.54000000E-01  3.54000000E-01  3.54000000E-01
  3.54000000E-01  3.54000000E-01  3.54000000E-01  3.54000000E-01  3.54000000E-01
  3.54000000E-01  3.54000000E-01  3.54000000E-01  3.54000000E-01  3.54000000E-01
  3.54000000E-01  3.54000000E-01  3.54000000E-01  3.54000000E-01  3.54000000E-01
  3.54000000E-01  3.54000000E-01  3.54000000E-01  3.54000000E-01  3.54000000E-01
  3.54000000E-01  3.54000000E-01  3.54000000E-01  3.54000000E-01  3.54000000E-01
  3.54000000E-01  3.54000000E-01  3.54000000E-01  3.54000000E-01  3.54000000E-01
  2.74000000E-01  2.96000000E-01  5.80000000E-02  4.40000000E-02  3.90000000E-02
  3.90000000E-02  3.60000000E-02  3.20000000E-02  2.90000000E-02  3.30000000E-02
  5.50000000E-02  3.90000000E-02  3.30000000E-02  3.00000000E-02  2.80000000E-02
  2.60000000E-02  2.50000000E-02  2.50000000E-02  4.50000000E-02  4.40000000E-02
  3.30000000E-02  2.50000000E-02  2.10000000E-02  1.80000000E-02  1.50000000E-02
  1.80000000E-02  2.10000000E-02  2.50000000E-02  3.30000000E-02  5.00000000E-02
  3.80000000E-02  3.10000000E-02  2.70000000E-02  2.40000000E-02  2.20000000E-02
  2.10000000E-02  4.30000000E-02  4.00000000E-02  3.20000000E-02  2.50000000E-02
  2.10000000E-02  1.80000000E-02  1.60000000E-02  1.90000000E-02  2.20000000E-02
  2.80000000E-02  3.10000000E-02  4.70000000E-02  3.40000000E-02  2.80000000E-02
  2.40000000E-02  2.10000000E-02  1.90000000E-02  1.80000000E-02  3.90000000E-02
  3.60000000E-02  2.50000000E-02  2.50000000E-02  2.50000000E-02  2.60000000E-02
  2.60000000E-02  2.60000000E-02  2.70000000E-02  2.70000000E-02  2.70000000E-02
  2.70000000E-02  2.80000000E-02  2.80000000E-02  2.80000000E-02  3.30000000E-02
  3.30000000E-02  2.60000000E-02  2.10000000E-02  1.80000000E-02  1.60000000E-02
  1.80000000E-02  2.20000000E-02  2.60000000E-02  4.90000000E-02  8.20000000E-02
  3.00000000E-02  2.40000000E-02  2.10000000E-02  1.80000000E-02  1.60000000E-02
  1.50000000E-02  3.50000000E-02  3.60000000E-02  2.20000000E-02  2.30000000E-02
  2.40000000E-02  2.40000000E-02  2.50000000E-02  2.50000000E-02  2.60000000E-02
  2.70000000E-02  2.70000000E-02  2.80000000E-02  2.80000000E-02  2.90000000E-02
  3.00000000E-02  3.00000000E-02  3.10000000E-02  3.10000000E-02  3.10000000E-02
  3.10000000E-02  3.10000000E-02  3.10000000E-02  3.10000000E-02  3.10000000E-02
  3.10000000E-02  3.10000000E-02  3.10000000E-02  3.10000000E-02  3.10000000E-02
  3.10000000E-02  3.10000000E-02  3.10000000E-02  3.10000000E-02  3.10000000E-02
  3.10000000E-02  3.10000000E-02  3.10000000E-02  3.10000000E-02  3.10000000E-02
  3.10000000E-02  3.10000000E-02  3.10000000E-02  3.10000000E-02  3.10000000E-02
  3.10000000E-02  3.10000000E-02  3.10000000E-02  3.10000000E-02  3.10000000E-02
  3.10000000E-02  3.10000000E-02  3.10000000E-02  3.10000000E-02  3.10000000E-02
  3.10000000E-02  3.10000000E-02  3.10000000E-02  3.10000000E-02  3.10000000E-02
  3.10000000E-02  3.10000000E-02  3.10000000E-02  3.10000000E-02  3.10000000E-02
  3.10000000E-02  3.10000000E-02  3.10000000E-02  3.10000000E-02  3.10000000E-02
  3.10000000E-02  3.10000000E-02  3.10000000E-02  3.10000000E-02  3.10000000E-02
  3.10000000E-02  3.10000000E-02  3.10000000E-02  3.10000000E-02  3.10000000E-02
  3.10000000E-02  3.10000000E-02  3.10000000E-02  3.10000000E-02  3.10000000E-02
  3.10000000E-02  3.10000000E-02  3.10000000E-02  3.10000000E-02  3.10000000E-02
  3.10000000E-02  3.10000000E-02  3.10000000E-02  3.10000000E-02  3.10000000E-02
  3.10000000E-02  3.10000000E-02  3.10000000E-02  3.10000000E-02  3.10000000E-02
  3.10000000E-02  3.10000000E-02  3.10000000E-02  3.10000000E-02  3.10000000E-02
  3.10000000E-02  3.10000000E-02  3.10000000E-02  3.10000000E-02  3.10000000E-02
  3.10000000E-02  3.10000000E-02  3.10000000E-02  3.10000000E-02  3.10000000E-02
 -5.92770000E-01 -9.17860000E-01 -2.48668000E+00 -8.36430000E-01 -3.18470000E-01
 -4.55790000E-01 -5.70730000E-01 -6.77940000E-01 -7.69860000E-01 -8.51140000E-01
 -1.51908000E+00 -3.18830000E-01 -2.17900000E-01 -3.01260000E-01 -3.72750000E-01
 -4.15890000E-01 -4.45930000E-01 -5.91320000E-01 -9.56370000E-01 -2.88450000E-01
 -4.87320000E-01 -6.34280000E-01 -7.17490000E-01 -7.91980000E-01 -8.68490000E-01
 -9.17520000E-01 -9.54890000E-01 -9.88460000E-01 -1.50055000E+00 -2.92560000E-01
 -2.14960000E-01 -2.91180000E-01 -3.42080000E-01 -3.84480000E-01 -4.34940000E-01
 -5.24310000E-01 -8.10070000E-01 -2.58460000E-01 -4.35550000E-01 -5.32740000E-01
 -6.08450000E-01 -6.10260000E-01 -7.58920000E-01 -8.90130000E-01 -8.45780000E-01
 -8.69340000E-01 -1.38234000E+00 -2.64850000E-01 -1.97280000E-01 -2.65040000E-01
 -2.94470000E-01 -3.16570000E-01 -3.63590000E-01 -4.57840000E-01 -8.61830000E-01
 -1.33004000E+00 -6.82880000E-01 -6.25540000E-01 -6.35430000E-01 -8.79690000E-01
 -9.02690000E-01 -9.59650000E-01 -1.01869000E+00 -6.81170000E-01 -7.96500000E-01
 -9.04950000E-01 -8.34790000E-01 -9.01560000E-01 -9.74130000E-01 -1.03326000E+00
 -7.15490000E-01 -7.83960000E-01 -8.28380000E-01 -5.61040000E-01 -1.03841000E+00
 -8.62500000E-01 -9.59300000E-01 -1.01755000E+00 -7.64900000E-01 -1.29467000E+00
 -1.92740000E-01 -2.56010000E-01 -3.19820000E-01 -1.94660000E-01 -2.60090000E-01
 -4.27990000E-01  0.00000000E+00  0.00000000E+00  0.00000000E+00  0.00000000E+00
  0.00000000E+00  0.00000000E+00  0.00000000E+00  0.00000000E+00  0.00000000E+00
  0.00000000E+00  0.00000000E+00  0.00000000E+00  0.00000000E+00  0.00000000E+00
  0.00000000E+00  0.00000000E+00  0.00000000E+00  0.00000000E+00  0.00000000E+00
  0.00000000E+00  0.00000000E+00  0.00000000E+00  0.00000000E+00  0.00000000E+00
  0.00000000E+00  0.00000000E+00  0.00000000E+00  0.00000000E+00  0.00000000E+00
  0.00000000E+00  0.00000000E+00  0.00000000E+00  0.00000000E+00  0.00000000E+00
  0.00000000E+00  0.00000000E+00  0.00000000E+00  0.00000000E+00  0.00000000E+00
  0.00000000E+00  0.00000000E+00  0.00000000E+00  0.00000000E+00  0.00000000E+00
  0.00000000E+00  0.00000000E+00  0.00000000E+00  0.00000000E+00  0.00000000E+00
  0.00000000E+00  0.00000000E+00  0.00000000E+00  0.00000000E+00  0.00000000E+00
  0.00000000E+00  0.00000000E+00  0.00000000E+00  0.00000000E+00  0.00000000E+00
  0.00000000E+00  0.00000000E+00  0.00000000E+00  0.00000000E+00  0.00000000E+00
  0.00000000E+00  0.00000000E+00  0.00000000E+00  0.00000000E+00  0.00000000E+00
  0.00000000E+00  0.00000000E+00  0.00000000E+00  0.00000000E+00  0.00000000E+00
  0.00000000E+00  0.00000000E+00  0.00000000E+00  0.00000000E+00  0.00000000E+00
  0.00000000E+00  0.00000000E+00  0.00000000E+00  0.00000000E+00  0.00000000E+00
  0.00000000E+00  0.00000000E+00  0.00000000E+00  0.00000000E+00  0.00000000E+00
  0.00000000E+00  0.00000000E+00  0.00000000E+00  0.00000000E+00  0.00000000E+00
  0.00000000E+00  0.00000000E+00  0.00000000E+00  0.00000000E+00  0.00000000E+00
  0.00000000E+00  0.00000000E+00  0.00000000E+00  0.00000000E+00  0.00000000E+00
  0.00000000E+00  0.00000000E+00  0.00000000E+00  0.00000000E+00  0.00000000E+00
  0.00000000E+00  0.00000000E+00  0.00000000E+00  0.00000000E+00  0.00000000E+00
  1.90440000E+00  1.36430000E+00  4.84000000E-01  7.31600000E+00  9.24030000E+00
  8.78200000E+00  5.61290000E+00  4.83340000E+00  3.24870000E+00  2.71090000E+00
  2.01130000E+00  1.50282000E+01  1.46788000E+01  2.13546000E+01  2.38290000E+01
  1.98022000E+01  1.50468000E+01  1.09745000E+01  1.27219000E+01  1.51949000E+01
  1.57342000E+01  2.79222000E+01  1.61366000E+01  2.21252000E+01  2.45676000E+01
  1.96016000E+01  1.79818000E+01  1.72396000E+01  5.01500000E+00  1.92898000E+01
  2.34477000E+01  2.23993000E+01  2.96586000E+01  2.60081000E+01  2.15580000E+01
  1.69594000E+01  1.56479000E+01  1.86897000E+01  1.93530000E+01  3.43444000E+01
  1.98480000E+01  2.72140000E+01  3.02182000E+01  2.41099000E+01  2.21176000E+01
  2.12047000E+01  7.56690000E+00  2.37264000E+01  2.93879000E+01  3.01278000E+01
  4.19382000E+01  3.85203000E+01  3.39511000E+01  2.75774000E+01  1.56460000E+01
  1.04460000E+01  2.01830000E+01  4.99540000E+01  4.76430000E+01  1.18690000E+01
  1.08670000E+01  9.96100000E+00  9.18700000E+00  3.67980000E+01  1.34070000E+01
  9.38200000E+00  9.81700000E+00  8.90800000E+00  8.40700000E+00  8.05800000E+00
  1.29600000E+01  2.67920000E+01  2.49300000E+01  3.45630000E+01  1.11860000E+01
  1.09440000E+01  1.01270000E+01  9.40400000E+00  1.36660000E+01  7.81000000E+00
  6.93600000E+01  5.86630000E+01  4.79690000E+01  4.52740000E+01  3.92290000E+01
  3.30660000E+01  0.00000000E+00  0.00000000E+00  0.00000000E+00  0.00000000E+00
  0.00000000E+00  0.00000000E+00  0.00000000E+00  0.00000000E+00  0.00000000E+00
  0.00000000E+00  0.00000000E+00  0.00000000E+00  0.00000000E+00  0.00000000E+00
  0.00000000E+00  0.00000000E+00  0.00000000E+00  0.00000000E+00  0.00000000E+00
  0.00000000E+00  0.00000000E+00  0.00000000E+00  0.00000000E+00  0.00000000E+00
  0.00000000E+00  0.00000000E+00  0.00000000E+00  0.00000000E+00  0.00000000E+00
  0.00000000E+00  0.00000000E+00  0.00000000E+00  0.00000000E+00  0.00000000E+00
  0.00000000E+00  0.00000000E+00  0.00000000E+00  0.00000000E+00  0.00000000E+00
  0.00000000E+00  0.00000000E+00  0.00000000E+00  0.00000000E+00  0.00000000E+00
  0.00000000E+00  0.00000000E+00  0.00000000E+00  0.00000000E+00  0.00000000E+00
  0.00000000E+00  0.00000000E+00  0.00000000E+00  0.00000000E+00  0.00000000E+00
  0.00000000E+00  0.00000000E+00  0.00000000E+00  0.00000000E+00  0.00000000E+00
  0.00000000E+00  0.00000000E+00  0.00000000E+00  0.00000000E+00  0.00000000E+00
  0.00000000E+00  0.00000000E+00  0.00000000E+00  0.00000000E+00  0.00000000E+00
  0.00000000E+00  0.00000000E+00  0.00000000E+00  0.00000000E+00  0.00000000E+00
  0.00000000E+00  0.00000000E+00  0.00000000E+00  0.00000000E+00  0.00000000E+00
  0.00000000E+00  0.00000000E+00  0.00000000E+00  0.00000000E+00  0.00000000E+00
  0.00000000E+00  0.00000000E+00  0.00000000E+00  0.00000000E+00  0.00000000E+00
  0.00000000E+00  0.00000000E+00  0.00000000E+00  0.00000000E+00  0.00000000E+00
  0.00000000E+00  0.00000000E+00  0.00000000E+00  0.00000000E+00  0.00000000E+00
  0.00000000E+00  0.00000000E+00  0.00000000E+00  0.00000000E+00  0.00000000E+00
  0.00000000E+00  0.00000000E+00  0.00000000E+00  0.00000000E+00  0.00000000E+00
  0.00000000E+00  0.00000000E+00  0.00000000E+00  0.00000000E+00  0.00000000E+00
  0.00000000E+00  0.00000000E+00  0.00000000E+00  0.00000000E+00  0.00000000E+00
  0.00000000E+00  0.00000000E+00  0.00000000E+00  0.00000000E+00  0.00000000E+00
  0.00000000E+00  0.00000000E+00  0.00000000E+00  0.00000000E+00  0.00000000E+00
  0.00000000E+00  0.00000000E+00  0.00000000E+00  0.00000000E+00  0.00000000E+00
  0.00000000E+00  0.00000000E+00  0.00000000E+00  0.00000000E+00  0.00000000E+00
  0.00000000E+00  0.00000000E+00  0.00000000E+00  0.00000000E+00  0.00000000E+00
  0.00000000E+00  0.00000000E+00  0.00000000E+00  0.00000000E+00  0.00000000E+00
  0.00000000E+00  0.00000000E+00  0.00000000E+00  0.00000000E+00  0.00000000E+00
  0.00000000E+00  0.00000000E+00  0.00000000E+00  0.00000000E+00  0.00000000E+00
  0.00000000E+00  0.00000000E+00  0.00000000E+00  0.00000000E+00  0.00000000E+00
  0.00000000E+00  0.00000000E+00  0.00000000E+00  0.00000000E+00  0.00000000E+00
  0.00000000E+00  0.00000000E+00  0.00000000E+00  0.00000000E+00  0.00000000E+00
  0.00000000E+00  0.00000000E+00  0.00000000E+00  0.00000000E+00  0.00000000E+00
  0.00000000E+00  0.00000000E+00  0.00000000E+00  0.00000000E+00  0.00000000E+00
  0.00000000E+00  0.00000000E+00  0.00000000E+00  0.00000000E+00  0.00000000E+00
  0.00000000E+00  0.00000000E+00  0.00000000E+00  0.00000000E+00  0.00000000E+00
  0.00000000E+00  0.00000000E+00  0.00000000E+00  0.00000000E+00  0.00000000E+00
  0.00000000E+00  0.00000000E+00  0.00000000E+00  0.00000000E+00  0.00000000E+00
  0.00000000E+00  0.00000000E+00  0.00000000E+00  0.00000000E+00  0.00000000E+00
  0.00000000E+00  0.00000000E+00  0.00000000E+00  0.00000000E+00  0.00000000E+00
  0.00000000E+00  0.00000000E+00  0.00000000E+00  0.00000000E+00  0.00000000E+00
  0.00000000E+00  0.00000000E+00  0.00000000E+00  0.00000000E+00  0.00000000E+00
  0.00000000E+00  0.00000000E+00  0.00000000E+00  0.00000000E+00  0.00000000E+00
  0.00000000E+00  0.00000000E+00  0.00000000E+00  0.00000000E+00  0.00000000E+00
  0.00000000E+00  0.00000000E+00  0.00000000E+00  0.00000000E+00  0.00000000E+00
  0.00000000E+00  0.00000000E+00  0.00000000E+00  0.00000000E+00  0.00000000E+00
  0.00000000E+00  0.00000000E+00  0.00000000E+00  0.00000000E+00  0.00000000E+00
  0.00000000E+00  0.00000000E+00  0.00000000E+00  0.00000000E+00  0.00000000E+00
  0.00000000E+00  0.00000000E+00  0.00000000E+00  0.00000000E+00  0.00000000E+00
  0.00000000E+00  0.00000000E+00  0.00000000E+00  0.00000000E+00  0.00000000E+00
  0.00000000E+00  0.00000000E+00  0.00000000E+00  0.00000000E+00  0.00000000E+00
  0.00000000E+00  0.00000000E+00  0.00000000E+00  0.00000000E+00  0.00000000E+00
  0.00000000E+00  0.00000000E+00  0.00000000E+00  0.00000000E+00  0.00000000E+00
  0.00000000E+00  0.00000000E+00  0.00000000E+00  0.00000000E+00  0.00000000E+00
  0.00000000E+00  0.00000000E+00  0.00000000E+00  0.00000000E+00  0.00000000E+00
  0.00000000E+00  0.00000000E+00  0.00000000E+00  0.00000000E+00  0.00000000E+00
  0.00000000E+00  0.00000000E+00  0.00000000E+00  0.00000000E+00  0.00000000E+00
  0.00000000E+00  0.00000000E+00  0.00000000E+00  0.00000000E+00  0.00000000E+00
  0.00000000E+00  0.00000000E+00  0.00000000E+00  0.00000000E+00  0.00000000E+00
  0.00000000E+00  0.00000000E+00  0.00000000E+00  0.00000000E+00  0.00000000E+00
  0.00000000E+00  0.00000000E+00  0.00000000E+00  0.00000000E+00  0.00000000E+00
  0.00000000E+00  0.00000000E+00  0.00000000E+00  0.00000000E+00  0.00000000E+00
  0.00000000E+00  0.00000000E+00  0.00000000E+00  0.00000000E+00  0.00000000E+00
  0.00000000E+00  0.00000000E+00  0.00000000E+00  0.00000000E+00  0.00000000E+00
  0.00000000E+00  0.00000000E+00  0.00000000E+00  0.00000000E+00  0.00000000E+00
  0.00000000E+00  0.00000000E+00  0.00000000E+00  0.00000000E+00  0.00000000E+00
  0.00000000E+00  0.00000000E+00  0.00000000E+00  0.00000000E+00  0.00000000E+00
  0.00000000E+00  0.00000000E+00  0.00000000E+00  0.00000000E+00  0.00000000E+00
  0.00000000E+00  0.00000000E+00  0.00000000E+00  0.00000000E+00  0.00000000E+00
  0.00000000E+00  0.00000000E+00  0.00000000E+00  0.00000000E+00  0.00000000E+00
  0.00000000E+00  0.00000000E+00  0.00000000E+00  0.00000000E+00  0.00000000E+00
  0.00000000E+00  0.00000000E+00  0.00000000E+00  0.00000000E+00  0.00000000E+00
  0.00000000E+00  0.00000000E+00  0.00000000E+00  0.00000000E+00  0.00000000E+00
  0.00000000E+00  0.00000000E+00  0.00000000E+00  0.00000000E+00  0.00000000E+00
  0.00000000E+00  0.00000000E+00  0.00000000E+00  0.00000000E+00  0.00000000E+00
  0.00000000E+00  0.00000000E+00  0.00000000E+00  0.00000000E+00  0.00000000E+00
  0.00000000E+00  0.00000000E+00  0.00000000E+00  0.00000000E+00  0.00000000E+00
  0.00000000E+00  0.00000000E+00  0.00000000E+00  0.00000000E+00  0.00000000E+00
  0.00000000E+00  0.00000000E+00  0.00000000E+00  0.00000000E+00  0.00000000E+00
  0.00000000E+00  0.00000000E+00  0.00000000E+00  0.00000000E+00  0.00000000E+00
  0.00000000E+00  0.00000000E+00  0.00000000E+00  0.00000000E+00  0.00000000E+00
  0.00000000E+00  0.00000000E+00  0.00000000E+00  0.00000000E+00  0.00000000E+00
  0.00000000E+00  0.00000000E+00  0.00000000E+00  0.00000000E+00  0.00000000E+00
  0.00000000E+00  0.00000000E+00  0.00000000E+00  0.00000000E+00  0.00000000E+00
  0.00000000E+00  0.00000000E+00  0.00000000E+00  0.00000000E+00  0.00000000E+00
  0.00000000E+00  0.00000000E+00  0.00000000E+00  0.00000000E+00  0.00000000E+00
  0.00000000E+00  0.00000000E+00  0.00000000E+00  0.00000000E+00  0.00000000E+00
  0.00000000E+00  0.00000000E+00  0.00000000E+00  0.00000000E+00  0.00000000E+00
  0.00000000E+00  0.00000000E+00  0.00000000E+00  0.00000000E+00  0.00000000E+00
  0.00000000E+00  0.00000000E+00  0.00000000E+00  0.00000000E+00  0.00000000E+00
  0.00000000E+00  0.00000000E+00  0.00000000E+00  0.00000000E+00  0.00000000E+00
  0.00000000E+00  0.00000000E+00  0.00000000E+00  0.00000000E+00  0.00000000E+00
  0.00000000E+00  0.00000000E+00  0.00000000E+00  0.00000000E+00  0.00000000E+00
  0.00000000E+00  0.00000000E+00  0.00000000E+00  0.00000000E+00  0.00000000E+00
  0.00000000E+00  0.00000000E+00  0.00000000E+00  0.00000000E+00  0.00000000E+00
  0.00000000E+00  0.00000000E+00  0.00000000E+00  0.00000000E+00  0.00000000E+00
  0.00000000E+00  0.00000000E+00  0.00000000E+00  0.00000000E+00  0.00000000E+00
  0.00000000E+00  0.00000000E+00  0.00000000E+00  0.00000000E+00  0.00000000E+00
  0.00000000E+00  0.00000000E+00  0.00000000E+00  0.00000000E+00  0.00000000E+00
  0.00000000E+00  0.00000000E+00  0.00000000E+00  0.00000000E+00  0.00000000E+00
  0.00000000E+00  0.00000000E+00  0.00000000E+00  0.00000000E+00  0.00000000E+00
  0.00000000E+00  0.00000000E+00  0.00000000E+00  0.00000000E+00  0.00000000E+00
  0.00000000E+00  0.00000000E+00  0.00000000E+00  0.00000000E+00  0.00000000E+00
  0.00000000E+00  0.00000000E+00  0.00000000E+00  0.00000000E+00  0.00000000E+00
  0.00000000E+00  0.00000000E+00  0.00000000E+00  0.00000000E+00  0.00000000E+00
  0.00000000E+00  0.00000000E+00  0.00000000E+00  0.00000000E+00  0.00000000E+00
  0.00000000E+00  0.00000000E+00  0.00000000E+00  0.00000000E+00  0.00000000E+00
  0.00000000E+00  0.00000000E+00  0.00000000E+00  0.00000000E+00  0.00000000E+00
  0.00000000E+00  0.00000000E+00  0.00000000E+00  0.00000000E+00  0.00000000E+00
  0.00000000E+00  0.00000000E+00  0.00000000E+00  0.00000000E+00  0.00000000E+00
  0.00000000E+00  0.00000000E+00  0.00000000E+00  0.00000000E+00  0.00000000E+00
  0.00000000E+00  0.00000000E+00  0.00000000E+00  0.00000000E+00  0.00000000E+00
  0.00000000E+00  0.00000000E+00  0.00000000E+00  0.00000000E+00  0.00000000E+00
  0.00000000E+00  0.00000000E+00  0.00000000E+00  0.00000000E+00  0.00000000E+00
  0.00000000E+00  0.00000000E+00  0.00000000E+00  0.00000000E+00  0.00000000E+00
  0.00000000E+00  0.00000000E+00  0.00000000E+00  0.00000000E+00  0.00000000E+00
  0.00000000E+00  0.00000000E+00  0.00000000E+00  0.00000000E+00  0.00000000E+00
  0.00000000E+00  0.00000000E+00  0.00000000E+00  0.00000000E+00  0.00000000E+00
  0.00000000E+00  0.00000000E+00  0.00000000E+00  0.00000000E+00  0.00000000E+00
  0.00000000E+00  0.00000000E+00  0.00000000E+00  0.00000000E+00  0.00000000E+00
  0.00000000E+00  0.00000000E+00  0.00000000E+00  0.00000000E+00  0.00000000E+00
  0.00000000E+00  0.00000000E+00  0.00000000E+00  0.00000000E+00  0.00000000E+00
  0.00000000E+00  0.00000000E+00  0.00000000E+00  0.00000000E+00  0.00000000E+00
  0.00000000E+00  0.00000000E+00  0.00000000E+00  0.00000000E+00  0.00000000E+00
  0.00000000E+00  0.00000000E+00  0.00000000E+00  0.00000000E+00  0.00000000E+00
  0.00000000E+00  0.00000000E+00  0.00000000E+00  0.00000000E+00  0.00000000E+00
  0.00000000E+00  0.00000000E+00  0.00000000E+00  0.00000000E+00  0.00000000E+00
  0.00000000E+00  0.00000000E+00  0.00000000E+00  0.00000000E+00  0.00000000E+00
  0.00000000E+00  0.00000000E+00  0.00000000E+00  0.00000000E+00  0.00000000E+00
  0.00000000E+00  0.00000000E+00  0.00000000E+00  0.00000000E+00  0.00000000E+00
  0.00000000E+00  0.00000000E+00  0.00000000E+00  0.00000000E+00  0.00000000E+00
  0.00000000E+00  0.00000000E+00  0.00000000E+00  0.00000000E+00  0.00000000E+00
  0.00000000E+00  0.00000000E+00  0.00000000E+00  0.00000000E+00  0.00000000E+00
  0.00000000E+00  0.00000000E+00  0.00000000E+00  0.00000000E+00  0.00000000E+00
  0.00000000E+00  0.00000000E+00  0.00000000E+00  0.00000000E+00  0.00000000E+00
  0.00000000E+00  0.00000000E+00  0.00000000E+00  0.00000000E+00  0.00000000E+00
  0.00000000E+00  0.00000000E+00  0.00000000E+00  0.00000000E+00  0.00000000E+00
  0.00000000E+00  0.00000000E+00  0.00000000E+00  0.00000000E+00  0.00000000E+00
  0.00000000E+00  0.00000000E+00  0.00000000E+00  0.00000000E+00  0.00000000E+00
  0.00000000E+00  0.00000000E+00  0.00000000E+00  0.00000000E+00  0.00000000E+00
  0.00000000E+00  0.00000000E+00  0.00000000E+00  0.00000000E+00  0.00000000E+00
  0.00000000E+00  0.00000000E+00  0.00000000E+00  0.00000000E+00  0.00000000E+00
  0.00000000E+00  0.00000000E+00  0.00000000E+00  0.00000000E+00  0.00000000E+00
  0.00000000E+00  0.00000000E+00  0.00000000E+00  0.00000000E+00  0.00000000E+00
  0.00000000E+00  0.00000000E+00  0.00000000E+00  0.00000000E+00  0.00000000E+00
  0.00000000E+00  0.00000000E+00  0.00000000E+00  0.00000000E+00  0.00000000E+00
  0.00000000E+00  0.00000000E+00  0.00000000E+00  0.00000000E+00  0.00000000E+00
  0.00000000E+00  0.00000000E+00  0.00000000E+00  0.00000000E+00  0.00000000E+00
  0.00000000E+00  0.00000000E+00  0.00000000E+00  0.00000000E+00  0.00000000E+00
  0.00000000E+00  0.00000000E+00  0.00000000E+00  0.00000000E+00  0.00000000E+00
  0.00000000E+00  0.00000000E+00  0.00000000E+00  0.00000000E+00  0.00000000E+00
  0.00000000E+00  0.00000000E+00  0.00000000E+00  0.00000000E+00  0.00000000E+00
  0.00000000E+00  0.00000000E+00  0.00000000E+00  0.00000000E+00  0.00000000E+00
  0.00000000E+00  0.00000000E+00  0.00000000E+00  0.00000000E+00  0.00000000E+00
  0.00000000E+00  0.00000000E+00  0.00000000E+00  0.00000000E+00  0.00000000E+00
  0.00000000E+00  0.00000000E+00  0.00000000E+00  0.00000000E+00  0.00000000E+00
  0.00000000E+00  0.00000000E+00  0.00000000E+00  0.00000000E+00  0.00000000E+00
  0.00000000E+00  0.00000000E+00  0.00000000E+00  0.00000000E+00  0.00000000E+00
  0.00000000E+00  0.00000000E+00  0.00000000E+00  0.00000000E+00  0.00000000E+00
  0.00000000E+00  0.00000000E+00  0.00000000E+00  0.00000000E+00  0.00000000E+00
  0.00000000E+00  0.00000000E+00  0.00000000E+00  0.00000000E+00  0.00000000E+00
  0.00000000E+00  0.00000000E+00  0.00000000E+00  0.00000000E+00  0.00000000E+00
  0.00000000E+00  0.00000000E+00  0.00000000E+00  0.00000000E+00  0.00000000E+00
  0.00000000E+00  0.00000000E+00  0.00000000E+00  0.00000000E+00  0.00000000E+00
  0.00000000E+00  0.00000000E+00  0.00000000E+00  0.00000000E+00  0.00000000E+00
  0.00000000E+00  0.00000000E+00  0.00000000E+00  0.00000000E+00  0.00000000E+00
  0.00000000E+00  0.00000000E+00  0.00000000E+00  0.00000000E+00  0.00000000E+00
  0.00000000E+00  0.00000000E+00  0.00000000E+00  0.00000000E+00  0.00000000E+00
  0.00000000E+00  0.00000000E+00  0.00000000E+00  0.00000000E+00  0.00000000E+00
  0.00000000E+00  0.00000000E+00  0.00000000E+00  0.00000000E+00  0.00000000E+00
  0.00000000E+00  0.00000000E+00  0.00000000E+00  0.00000000E+00  0.00000000E+00
  0.00000000E+00  0.00000000E+00  0.00000000E+00  0.00000000E+00  0.00000000E+00
  0.00000000E+00  0.00000000E+00  0.00000000E+00  0.00000000E+00  0.00000000E+00
  0.00000000E+00  0.00000000E+00  0.00000000E+00  0.00000000E+00  0.00000000E+00
  0.00000000E+00  0.00000000E+00  0.00000000E+00  0.00000000E+00  0.00000000E+00
  0.00000000E+00  0.00000000E+00  0.00000000E+00  0.00000000E+00  0.00000000E+00
  0.00000000E+00  0.00000000E+00  0.00000000E+00  0.00000000E+00  0.00000000E+00
  0.00000000E+00  0.00000000E+00  0.00000000E+00  0.00000000E+00  0.00000000E+00
  0.00000000E+00  0.00000000E+00  0.00000000E+00  0.00000000E+00  0.00000000E+00
  0.00000000E+00  0.00000000E+00  0.00000000E+00  0.00000000E+00  0.00000000E+00
  0.00000000E+00  0.00000000E+00  0.00000000E+00  0.00000000E+00  0.00000000E+00
  0.00000000E+00  0.00000000E+00  0.00000000E+00  0.00000000E+00  0.00000000E+00
  0.00000000E+00  0.00000000E+00  0.00000000E+00  0.00000000E+00  0.00000000E+00
  0.00000000E+00  0.00000000E+00  0.00000000E+00  0.00000000E+00  0.00000000E+00
  0.00000000E+00  0.00000000E+00  0.00000000E+00  0.00000000E+00  0.00000000E+00
  0.00000000E+00  0.00000000E+00  0.00000000E+00  0.00000000E+00  0.00000000E+00
  0.00000000E+00  0.00000000E+00  0.00000000E+00  0.00000000E+00  0.00000000E+00
  0.00000000E+00  0.00000000E+00  0.00000000E+00  0.00000000E+00  0.00000000E+00
  0.00000000E+00  0.00000000E+00  0.00000000E+00  0.00000000E+00  0.00000000E+00
  0.00000000E+00  0.00000000E+00  0.00000000E+00  0.00000000E+00  0.00000000E+00
  0.00000000E+00  0.00000000E+00  0.00000000E+00  0.00000000E+00  0.00000000E+00
  0.00000000E+00  0.00000000E+00  0.00000000E+00  0.00000000E+00  0.00000000E+00
  0.00000000E+00  0.00000000E+00  0.00000000E+00  0.00000000E+00  0.00000000E+00
  0.00000000E+00  0.00000000E+00  0.00000000E+00  0.00000000E+00  0.00000000E+00
  0.00000000E+00  0.00000000E+00  0.00000000E+00  0.00000000E+00  0.00000000E+00
  0.00000000E+00  0.00000000E+00  0.00000000E+00  0.00000000E+00  0.00000000E+00
  0.00000000E+00  0.00000000E+00  0.00000000E+00  0.00000000E+00  0.00000000E+00
  0.00000000E+00  0.00000000E+00  0.00000000E+00  0.00000000E+00  0.00000000E+00
  0.00000000E+00  0.00000000E+00  0.00000000E+00  0.00000000E+00  0.00000000E+00
  0.00000000E+00  0.00000000E+00  0.00000000E+00  0.00000000E+00  0.00000000E+00
  0.00000000E+00  0.00000000E+00  0.00000000E+00  0.00000000E+00  0.00000000E+00
  0.00000000E+00  0.00000000E+00  0.00000000E+00  0.00000000E+00  0.00000000E+00
  0.00000000E+00  0.00000000E+00  0.00000000E+00  0.00000000E+00  0.00000000E+00
  0.00000000E+00  0.00000000E+00  0.00000000E+00  0.00000000E+00  0.00000000E+00
  0.00000000E+00  0.00000000E+00  0.00000000E+00  0.00000000E+00  0.00000000E+00
  0.00000000E+00  0.00000000E+00  0.00000000E+00  0.00000000E+00  0.00000000E+00
  0.00000000E+00  0.00000000E+00  0.00000000E+00  0.00000000E+00  0.00000000E+00
  0.00000000E+00  0.00000000E+00  0.00000000E+00  0.00000000E+00  0.00000000E+00
  0.00000000E+00  0.00000000E+00  0.00000000E+00  0.00000000E+00  0.00000000E+00
  0.00000000E+00  0.00000000E+00  0.00000000E+00  0.00000000E+00  0.00000000E+00
  0.00000000E+00  0.00000000E+00  0.00000000E+00  0.00000000E+00  0.00000000E+00
  0.00000000E+00  0.00000000E+00  0.00000000E+00  0.00000000E+00  0.00000000E+00
  0.00000000E+00  0.00000000E+00  0.00000000E+00  0.00000000E+00  0.00000000E+00
  0.00000000E+00  0.00000000E+00  0.00000000E+00  0.00000000E+00  0.00000000E+00
  0.00000000E+00  0.00000000E+00  0.00000000E+00  0.00000000E+00  0.00000000E+00
  0.00000000E+00  0.00000000E+00  0.00000000E+00  0.00000000E+00  0.00000000E+00
  0.00000000E+00  0.00000000E+00  0.00000000E+00  0.00000000E+00  0.00000000E+00
  0.00000000E+00  0.00000000E+00  0.00000000E+00  0.00000000E+00  0.00000000E+00
  0.00000000E+00  0.00000000E+00  0.00000000E+00  0.00000000E+00  0.00000000E+00
  0.00000000E+00  0.00000000E+00  0.00000000E+00  0.00000000E+00  0.00000000E+00
  0.00000000E+00  0.00000000E+00  0.00000000E+00  0.00000000E+00  0.00000000E+00
  0.00000000E+00  0.00000000E+00  0.00000000E+00  0.00000000E+00  0.00000000E+00
  0.00000000E+00  0.00000000E+00  0.00000000E+00  0.00000000E+00  0.00000000E+00
  0.00000000E+00  0.00000000E+00  0.00000000E+00  0.00000000E+00  0.00000000E+00
  0.00000000E+00  0.00000000E+00  0.00000000E+00  0.00000000E+00  0.00000000E+00
  0.00000000E+00  0.00000000E+00  0.00000000E+00  0.00000000E+00  0.00000000E+00
  0.00000000E+00  0.00000000E+00  0.00000000E+00  0.00000000E+00  0.00000000E+00
  0.00000000E+00  0.00000000E+00  0.00000000E+00  0.00000000E+00  0.00000000E+00
  0.00000000E+00  0.00000000E+00  0.00000000E+00  0.00000000E+00  0.00000000E+00
  0.00000000E+00  0.00000000E+00  0.00000000E+00  0.00000000E+00  0.00000000E+00
  0.00000000E+00  0.00000000E+00  0.00000000E+00  0.00000000E+00  0.00000000E+00
  0.00000000E+00  0.00000000E+00  0.00000000E+00  0.00000000E+00  0.00000000E+00
  0.00000000E+00  0.00000000E+00  0.00000000E+00  0.00000000E+00  0.00000000E+00
  0.00000000E+00  0.00000000E+00  0.00000000E+00  0.00000000E+00  0.00000000E+00
  0.00000000E+00  0.00000000E+00  0.00000000E+00  0.00000000E+00  0.00000000E+00
  0.00000000E+00  0.00000000E+00  0.00000000E+00  0.00000000E+00  0.00000000E+00
  0.00000000E+00  0.00000000E+00  0.00000000E+00  0.00000000E+00  0.00000000E+00
  0.00000000E+00  0.00000000E+00  0.00000000E+00  0.00000000E+00  0.00000000E+00
  0.00000000E+00  0.00000000E+00  0.00000000E+00  0.00000000E+00  0.00000000E+00
  0.00000000E+00  0.00000000E+00  0.00000000E+00  0.00000000E+00  0.00000000E+00
  0.00000000E+00  0.00000000E+00  0.00000000E+00  0.00000000E+00  0.00000000E+00
  0.00000000E+00  0.00000000E+00  0.00000000E+00  0.00000000E+00  0.00000000E+00
  0.00000000E+00  0.00000000E+00  0.00000000E+00  0.00000000E+00  0.00000000E+00
  0.00000000E+00  0.00000000E+00  0.00000000E+00  0.00000000E+00  0.00000000E+00
  0.00000000E+00  0.00000000E+00  0.00000000E+00  0.00000000E+00  0.00000000E+00
  0.00000000E+00  0.00000000E+00  0.00000000E+00  0.00000000E+00  0.00000000E+00
  0.00000000E+00  0.00000000E+00  0.00000000E+00  0.00000000E+00  0.00000000E+00
  0.00000000E+00  0.00000000E+00  0.00000000E+00  0.00000000E+00  0.00000000E+00
  0.00000000E+00  0.00000000E+00  0.00000000E+00  0.00000000E+00  0.00000000E+00
  0.00000000E+00  0.00000000E+00  0.00000000E+00  0.00000000E+00  0.00000000E+00
  0.00000000E+00  0.00000000E+00  0.00000000E+00  0.00000000E+00  0.00000000E+00
  0.00000000E+00  0.00000000E+00  0.00000000E+00  0.00000000E+00  0.00000000E+00
  0.00000000E+00  0.00000000E+00  0.00000000E+00  0.00000000E+00  0.00000000E+00
  0.00000000E+00  0.00000000E+00  0.00000000E+00  0.00000000E+00  0.00000000E+00
  0.00000000E+00  0.00000000E+00  0.00000000E+00  0.00000000E+00  0.00000000E+00
  0.00000000E+00  0.00000000E+00  0.00000000E+00  0.00000000E+00  0.00000000E+00
  0.00000000E+00  0.00000000E+00  0.00000000E+00  0.00000000E+00  0.00000000E+00
  0.00000000E+00  0.00000000E+00  0.00000000E+00  0.00000000E+00  0.00000000E+00
  0.00000000E+00  0.00000000E+00  0.00000000E+00  0.00000000E+00  0.00000000E+00
  0.00000000E+00  0.00000000E+00  0.00000000E+00  0.00000000E+00  0.00000000E+00
  0.00000000E+00  0.00000000E+00  0.00000000E+00  0.00000000E+00  0.00000000E+00
  0.00000000E+00  0.00000000E+00  0.00000000E+00  0.00000000E+00  0.00000000E+00
  0.00000000E+00  0.00000000E+00  0.00000000E+00  0.00000000E+00  0.00000000E+00
  0.00000000E+00  0.00000000E+00  0.00000000E+00  0.00000000E+00  0.00000000E+00
  0.00000000E+00  0.00000000E+00  0.00000000E+00  0.00000000E+00  0.00000000E+00
  0.00000000E+00  0.00000000E+00  0.00000000E+00  0.00000000E+00  0.00000000E+00
  0.00000000E+00  0.00000000E+00  0.00000000E+00  0.00000000E+00  0.00000000E+00
  0.00000000E+00  0.00000000E+00  0.00000000E+00  0.00000000E+00  0.00000000E+00
  0.00000000E+00  0.00000000E+00  0.00000000E+00  0.00000000E+00  0.00000000E+00
  0.00000000E+00  0.00000000E+00  0.00000000E+00  0.00000000E+00  0.00000000E+00
  0.00000000E+00  0.00000000E+00  0.00000000E+00  0.00000000E+00  0.00000000E+00
  0.00000000E+00  0.00000000E+00  0.00000000E+00  0.00000000E+00  0.00000000E+00
  0.00000000E+00  0.00000000E+00  0.00000000E+00  0.00000000E+00  0.00000000E+00
  0.00000000E+00  0.00000000E+00  0.00000000E+00  0.00000000E+00  0.00000000E+00
  0.00000000E+00  0.00000000E+00  0.00000000E+00  0.00000000E+00  0.00000000E+00
  0.00000000E+00  0.00000000E+00  0.00000000E+00  0.00000000E+00  0.00000000E+00
  0.00000000E+00  0.00000000E+00  0.00000000E+00  0.00000000E+00  0.00000000E+00
  0.00000000E+00  0.00000000E+00  0.00000000E+00  0.00000000E+00  0.00000000E+00
  0.00000000E+00  0.00000000E+00  0.00000000E+00  0.00000000E+00  0.00000000E+00
  0.00000000E+00  0.00000000E+00  0.00000000E+00  0.00000000E+00  0.00000000E+00
  0.00000000E+00  0.00000000E+00  0.00000000E+00  0.00000000E+00  0.00000000E+00
  0.00000000E+00  0.00000000E+00  0.00000000E+00  0.00000000E+00  0.00000000E+00
  0.00000000E+00  0.00000000E+00  0.00000000E+00  0.00000000E+00  0.00000000E+00
  0.00000000E+00  0.00000000E+00  0.00000000E+00  0.00000000E+00  0.00000000E+00
  0.00000000E+00  0.00000000E+00  0.00000000E+00  0.00000000E+00  0.00000000E+00
  0.00000000E+00  0.00000000E+00  0.00000000E+00  0.00000000E+00  0.00000000E+00
  0.00000000E+00  0.00000000E+00  0.00000000E+00  0.00000000E+00  0.00000000E+00
  0.00000000E+00  0.00000000E+00  0.00000000E+00  0.00000000E+00  0.00000000E+00
  0.00000000E+00  0.00000000E+00  0.00000000E+00  0.00000000E+00  0.00000000E+00
  0.00000000E+00  0.00000000E+00  0.00000000E+00  0.00000000E+00  0.00000000E+00
  0.00000000E+00  0.00000000E+00  0.00000000E+00  0.00000000E+00  0.00000000E+00
  0.00000000E+00  0.00000000E+00  0.00000000E+00  0.00000000E+00  0.00000000E+00
  0.00000000E+00  0.00000000E+00  0.00000000E+00  0.00000000E+00  0.00000000E+00
  0.00000000E+00  0.00000000E+00  0.00000000E+00  0.00000000E+00  0.00000000E+00
  0.00000000E+00  0.00000000E+00  0.00000000E+00  0.00000000E+00  0.00000000E+00
  0.00000000E+00  0.00000000E+00  0.00000000E+00  0.00000000E+00  0.00000000E+00
  0.00000000E+00  0.00000000E+00  0.00000000E+00  0.00000000E+00  0.00000000E+00
  0.00000000E+00  0.00000000E+00  0.00000000E+00  0.00000000E+00  0.00000000E+00
  0.00000000E+00  0.00000000E+00  0.00000000E+00  0.00000000E+00  0.00000000E+00
  0.00000000E+00  0.00000000E+00  0.00000000E+00  0.00000000E+00  0.00000000E+00
  0.00000000E+00  0.00000000E+00  0.00000000E+00  0.00000000E+00  0.00000000E+00
  0.00000000E+00  0.00000000E+00  0.00000000E+00  0.00000000E+00  0.00000000E+00
  0.00000000E+00  0.00000000E+00  0.00000000E+00  0.00000000E+00  0.00000000E+00
  0.00000000E+00  0.00000000E+00  0.00000000E+00  0.00000000E+00  0.00000000E+00
  0.00000000E+00  0.00000000E+00  0.00000000E+00  0.00000000E+00  0.00000000E+00
  0.00000000E+00  0.00000000E+00  0.00000000E+00  0.00000000E+00  0.00000000E+00
  0.00000000E+00  0.00000000E+00  0.00000000E+00  0.00000000E+00  0.00000000E+00
  0.00000000E+00  0.00000000E+00  0.00000000E+00  0.00000000E+00  0.00000000E+00
  0.00000000E+00  0.00000000E+00  0.00000000E+00  0.00000000E+00  0.00000000E+00
  0.00000000E+00  0.00000000E+00  0.00000000E+00  0.00000000E+00  0.00000000E+00
  0.00000000E+00  0.00000000E+00  0.00000000E+00  0.00000000E+00  0.00000000E+00
  0.00000000E+00  0.00000000E+00  0.00000000E+00  0.00000000E+00  0.00000000E+00
  0.00000000E+00  0.00000000E+00  0.00000000E+00  0.00000000E+00  0.00000000E+00
  0.00000000E+00  0.00000000E+00  0.00000000E+00  0.00000000E+00  0.00000000E+00
  0.00000000E+00  0.00000000E+00  0.00000000E+00  0.00000000E+00  0.00000000E+00
  0.00000000E+00  0.00000000E+00  0.00000000E+00  0.00000000E+00  0.00000000E+00
  0.00000000E+00  0.00000000E+00  0.00000000E+00  0.00000000E+00  0.00000000E+00
  0.00000000E+00  0.00000000E+00  0.00000000E+00  0.00000000E+00  0.00000000E+00
  0.00000000E+00  0.00000000E+00  0.00000000E+00  0.00000000E+00  0.00000000E+00
  0.00000000E+00  0.00000000E+00  0.00000000E+00  0.00000000E+00  0.00000000E+00
  0.00000000E+00  0.00000000E+00  0.00000000E+00  0.00000000E+00  0.00000000E+00
  0.00000000E+00  0.00000000E+00  0.00000000E+00  0.00000000E+00  0.00000000E+00
  0.00000000E+00  0.00000000E+00  0.00000000E+00  0.00000000E+00  0.00000000E+00
  0.00000000E+00  0.00000000E+00  0.00000000E+00  0.00000000E+00  0.00000000E+00
  0.00000000E+00  0.00000000E+00  0.00000000E+00  0.00000000E+00  0.00000000E+00
  0.00000000E+00  0.00000000E+00  0.00000000E+00  0.00000000E+00  0.00000000E+00
  0.00000000E+00  0.00000000E+00  0.00000000E+00  0.00000000E+00  0.00000000E+00
  0.00000000E+00  0.00000000E+00  0.00000000E+00  0.00000000E+00  0.00000000E+00
  0.00000000E+00  0.00000000E+00  0.00000000E+00  0.00000000E+00  0.00000000E+00
  0.00000000E+00  0.00000000E+00  0.00000000E+00  0.00000000E+00  0.00000000E+00
  0.00000000E+00  0.00000000E+00  0.00000000E+00  0.00000000E+00  0.00000000E+00
  0.00000000E+00  0.00000000E+00  0.00000000E+00  0.00000000E+00  0.00000000E+00
  0.00000000E+00  0.00000000E+00  0.00000000E+00  0.00000000E+00  0.00000000E+00
  0.00000000E+00  0.00000000E+00  0.00000000E+00  0.00000000E+00  0.00000000E+00
  0.00000000E+00  0.00000000E+00  0.00000000E+00  0.00000000E+00  0.00000000E+00
  0.00000000E+00  0.00000000E+00  0.00000000E+00  0.00000000E+00  0.00000000E+00
  0.00000000E+00  0.00000000E+00  0.00000000E+00  0.00000000E+00  0.00000000E+00
  0.00000000E+00  0.00000000E+00  0.00000000E+00  0.00000000E+00  0.00000000E+00
  0.00000000E+00  0.00000000E+00  0.00000000E+00  0.00000000E+00  0.00000000E+00
  0.00000000E+00  0.00000000E+00  0.00000000E+00  0.00000000E+00  0.00000000E+00
  0.00000000E+00  0.00000000E+00  0.00000000E+00  0.00000000E+00  0.00000000E+00
  0.00000000E+00  0.00000000E+00  0.00000000E+00  0.00000000E+00  0.00000000E+00
  0.00000000E+00  0.00000000E+00  0.00000000E+00  0.00000000E+00  0.00000000E+00
  0.00000000E+00  0.00000000E+00  0.00000000E+00  0.00000000E+00  0.00000000E+00
  0.00000000E+00  0.00000000E+00  0.00000000E+00  0.00000000E+00  0.00000000E+00
  0.00000000E+00  0.00000000E+00  0.00000000E+00  0.00000000E+00  0.00000000E+00
  0.00000000E+00  0.00000000E+00  0.00000000E+00  0.00000000E+00  0.00000000E+00
  0.00000000E+00  0.00000000E+00  0.00000000E+00  0.00000000E+00  0.00000000E+00
  0.00000000E+00  0.00000000E+00  0.00000000E+00  0.00000000E+00  0.00000000E+00
  0.00000000E+00  0.00000000E+00  0.00000000E+00  0.00000000E+00  0.00000000E+00
  0.00000000E+00  0.00000000E+00  0.00000000E+00  0.00000000E+00  0.00000000E+00
  0.00000000E+00  0.00000000E+00  0.00000000E+00  0.00000000E+00  0.00000000E+00
  0.00000000E+00  0.00000000E+00  0.00000000E+00  0.00000000E+00  0.00000000E+00
  0.00000000E+00  0.00000000E+00  0.00000000E+00  0.00000000E+00  0.00000000E+00
  0.00000000E+00  0.00000000E+00  0.00000000E+00  0.00000000E+00  0.00000000E+00
  0.00000000E+00  0.00000000E+00  0.00000000E+00  0.00000000E+00  0.00000000E+00
  0.00000000E+00  0.00000000E+00  0.00000000E+00  0.00000000E+00  0.00000000E+00
  0.00000000E+00  0.00000000E+00  0.00000000E+00  0.00000000E+00  0.00000000E+00
  0.00000000E+00  0.00000000E+00  0.00000000E+00  0.00000000E+00  0.00000000E+00
  0.00000000E+00  0.00000000E+00  0.00000000E+00  0.00000000E+00  0.00000000E+00
  0.00000000E+00  0.00000000E+00  0.00000000E+00  0.00000000E+00  0.00000000E+00
  0.00000000E+00  0.00000000E+00  0.00000000E+00  0.00000000E+00  0.00000000E+00
  0.00000000E+00  0.00000000E+00  0.00000000E+00  0.00000000E+00  0.00000000E+00
  0.00000000E+00  0.00000000E+00  0.00000000E+00  0.00000000E+00  0.00000000E+00
  0.00000000E+00  0.00000000E+00  0.00000000E+00  0.00000000E+00  0.00000000E+00
  0.00000000E+00  0.00000000E+00  0.00000000E+00  0.00000000E+00  0.00000000E+00
  0.00000000E+00  0.00000000E+00  0.00000000E+00  0.00000000E+00  0.00000000E+00
  0.00000000E+00  0.00000000E+00  0.00000000E+00  0.00000000E+00  0.00000000E+00
  0.00000000E+00  0.00000000E+00  0.00000000E+00  0.00000000E+00  0.00000000E+00
  0.00000000E+00  0.00000000E+00  0.00000000E+00  0.00000000E+00  0.00000000E+00
  0.00000000E+00  0.00000000E+00  0.00000000E+00  0.00000000E+00  0.00000000E+00
  0.00000000E+00  0.00000000E+00  0.00000000E+00  0.00000000E+00  0.00000000E+00
  0.00000000E+00  0.00000000E+00  0.00000000E+00  0.00000000E+00  0.00000000E+00
  0.00000000E+00  0.00000000E+00  0.00000000E+00  0.00000000E+00  0.00000000E+00
  0.00000000E+00  0.00000000E+00  0.00000000E+00  0.00000000E+00  0.00000000E+00
  0.00000000E+00  0.00000000E+00  0.00000000E+00  0.00000000E+00  0.00000000E+00
  0.00000000E+00  0.00000000E+00  0.00000000E+00  0.00000000E+00  0.00000000E+00
  0.00000000E+00  0.00000000E+00  0.00000000E+00  0.00000000E+00  0.00000000E+00
  0.00000000E+00  0.00000000E+00  0.00000000E+00  0.00000000E+00  0.00000000E+00
  0.00000000E+00  0.00000000E+00  0.00000000E+00  0.00000000E+00  0.00000000E+00
Gaussian Version                           C   N=           2
ES64L-GDVRevJ.28        
