11
pyridine approximate
N  0.00290137  1.38914873  0.00000000
C  1.21188934  0.69405196  0.00000000
H  2.15325957  1.23860680  0.00000000
C  1.21096008 -0.70075191  0.00000000
H  2.15295039 -1.24423342  0.00000000
C  0.00290137 -1.39794115 -0.00000000
H  0.00290137 -2.48546949 -0.00000000
C -1.20515734 -0.70075191 -0.00000000
H -2.14714765 -1.24423342 -0.00000000
C -1.20608660  0.69405196 -0.00000000
H -2.14745683  1.23860680 -0.00000000
Bond distances
(i, j) | Old dist | New dist | Convergence Err (%) | Original Bond Order
-----------------------------------------------------------
(1, 2) | 1.397000 | 1.394565 | 0.000002 | 1.234
(1, 10) | 1.397000 | 1.394565 | 0.000002 | 1.234
(2, 3) | 1.090000 | 1.087528 | 0.000003 | 0.936
(2, 4) | 1.397000 | 1.394804 | 0.000002 | 1.410
(4, 5) | 1.090000 | 1.087528 | 0.000003 | 0.936
(4, 6) | 1.397000 | 1.394804 | 0.000002 | 1.410
(6, 7) | 1.090000 | 1.087528 | 0.000003 | 0.936
(6, 8) | 1.397000 | 1.394804 | 0.000002 | 1.410
(8, 9) | 1.090000 | 1.087528 | 0.000003 | 0.936
(8, 10) | 1.397000 | 1.394804 | 0.000002 | 1.410
(10, 11) | 1.090000 | 1.087528 | 0.000003 | 0.936

Parent rotational constants
Asymmetric top, nearly prolate

MHz                 | A             | B            | C
-----------------------------------------------------------------
Before correcting   | 5833.5488983884 | 5681.0566535676 | 2878.1465099750
After correcting    | 5858.9219874797 | 5694.8219626431 | 2887.8533015575
-----------------------------------------------------------------
