11
Fortran input pyridine
N  0.00000000  1.38835810 -0.00000000
C  1.20898748  0.69326133  0.00000000
H  2.15035802  1.23781617  0.00000000
C  1.20805823 -0.70154254 -0.00000000
H  2.15004884 -1.24502405 -0.00000000
C -0.00000000 -1.39873178 -0.00000000
H -0.00000000 -2.48626012 -0.00000000
C -1.20805823 -0.70154254 -0.00000000
H -2.15004884 -1.24502405 -0.00000000
C -1.20898748  0.69326133  0.00000000
H -2.15035802  1.23781617  0.00000000
Bond distances
(i, j) | Old dist | New dist | Convergence Err (%) | Original Bond Order
-----------------------------------------------------------
(1, 2) | 1.397000 | 1.394565 | 0.000002 | 1.234
(1, 10) | 1.397000 | 1.394565 | 0.000002 | 1.234
(2, 3) | 1.090000 | 1.087529 | 0.000003 | 0.936
(2, 4) | 1.397000 | 1.394804 | 0.000002 | 1.410
(4, 5) | 1.090000 | 1.087529 | 0.000003 | 0.936
(4, 6) | 1.397000 | 1.394804 | 0.000002 | 1.410
(6, 7) | 1.090000 | 1.087528 | 0.000003 | 0.936
(6, 8) | 1.397000 | 1.394804 | 0.000002 | 1.410
(8, 9) | 1.090000 | 1.087529 | 0.000003 | 0.936
(8, 10) | 1.397000 | 1.394804 | 0.000002 | 1.410
(10, 11) | 1.090000 | 1.087529 | 0.000003 | 0.936

Parent rotational constants
Asymmetric top, nearly prolate

MHz                 | A             | B            | C
-----------------------------------------------------------------
Before correcting   | 5833.5488983884 | 5681.0604876077 | 2878.1474940406
After correcting    | 5858.9219749107 | 5694.8257883052 | 2887.8542822803
-----------------------------------------------------------------
